%BLOCK LATTICE_CART
-2.378206835174    2.378206835174    1.297407373021    
2.378206835174    -2.378206835174    1.297407373021    
2.378206835174    2.378206835174    -1.297407373021    
%END BLOCK LATTICE_CART
%BLOCK POSITIONS_FRAC
Si    0.000000000000    0.000000000000    0.000000000000
Si    0.750000000000    0.250000000000    0.500000000000
%END BLOCK POSITIONS_FRAC
%BLOCK SPECIES_POT
Si si.gga.recpot
%END BLOCK SPECIES_POT
