%BLOCK LATTICE_CART
3.040940619458    0.000000000000    0.000000000000    
0.000000000000    3.040940619458    0.000000000000    
0.000000000000    0.000000000000    3.040940619458    
%END BLOCK LATTICE_CART
%BLOCK POSITIONS_FRAC
Mg    0.000000000000    0.000000000000    0.000000000000
%END BLOCK POSITIONS_FRAC
%BLOCK SPECIES_POT
Mg mg.gga.recpot
%END BLOCK SPECIES_POT
