%BLOCK LATTICE_CART
2.834394292419    0.000000000000    0.000000000000    
-1.417197146209    2.454657461576    0.000000000000    
0.000000000000    0.000000000000    4.655530191660    
%END BLOCK LATTICE_CART
%BLOCK POSITIONS_FRAC
Al    0.000000000000    0.000000000000    0.000000000000
Al    0.666666666667    0.333333333333    0.500000000000
%END BLOCK POSITIONS_FRAC
%BLOCK SPECIES_POT
Al al.lda.recpot
%END BLOCK SPECIES_POT
