%BLOCK LATTICE_CART
3.072208808575    0.000000000000    0.000000000000    
-1.536104404288    2.660610873957    0.000000000000    
0.000000000000    0.000000000000    4.988832779735    
%END BLOCK LATTICE_CART
%BLOCK POSITIONS_FRAC
Mg    0.000000000000    0.000000000000    0.000000000000
Mg    0.666666666667    0.333333333333    0.500000000000
%END BLOCK POSITIONS_FRAC
%BLOCK SPECIES_POT
Mg mg.lda.recpot
%END BLOCK SPECIES_POT
