%BLOCK LATTICE_CART
2.548745878018    0.000000000000    0.000000000000    
0.000000000000    2.548745878018    0.000000000000    
0.000000000000    0.000000000000    2.548745878018    
%END BLOCK LATTICE_CART
%BLOCK POSITIONS_FRAC
Si    0.000000000000    0.000000000000    0.000000000000
%END BLOCK POSITIONS_FRAC
%BLOCK SPECIES_POT
Si si.gga.recpot
%END BLOCK SPECIES_POT
