%BLOCK LATTICE_CART
2.806895120499    0.000000000000    0.000000000000    
-1.403447560249    2.430842480110    0.000000000000    
0.000000000000    0.000000000000    4.470562316782    
%END BLOCK LATTICE_CART
%BLOCK POSITIONS_FRAC
Si    0.000000000000    0.000000000000    0.000000000000
Si    0.666666666667    0.333333333333    0.500000000000
%END BLOCK POSITIONS_FRAC
%BLOCK SPECIES_POT
Si si.gga.recpot
%END BLOCK SPECIES_POT
