ATOMIC_SPECIES
Al 26.981 al.gga.psp blps
P 30.974 p.gga.psp blps

LATTICE_CONSTANT
0.0  // add lattice constant

LATTICE_VECTORS
1.931741394454    -3.345874242279    0.000000000000    
1.931741394454    3.345874242279    0.000000000000    
0.000000000000    0.000000000000    6.341443150000    

ATOMIC_POSITIONS
Direct

Al
0.0
2
    0.333333333333    0.666666666667    0.000069000000 1 1 1
    0.666666666667    0.333333333333    0.500069000000 1 1 1
P
0.0
2
    0.333333333333    0.666666666667    0.374931000000 1 1 1
    0.666666666667    0.333333333333    0.874931000000 1 1 1
