%BLOCK LATTICE_CART
0.000000000000    10.548328000000    0.000000000000    
14.726242000000    0.000000000000    0.000000000000    
0.000000000000    -5.166569000000    -7.525986000000    
%END BLOCK LATTICE_CART
%BLOCK POSITIONS_FRAC
Li    0.634126000000    0.000000000000    0.818157000000
Li    0.134126000000    0.500000000000    0.818157000000
Mg    0.002089000000    0.000000000000    0.655152000000
Mg    0.315552000000    0.000000000000    0.713353000000
Mg    0.998692000000    0.000000000000    0.999139000000
Mg    0.344424000000    0.000000000000    0.345128000000
Mg    0.602992000000    0.000000000000    0.285884000000
Mg    0.541361000000    0.857005000000    0.000046000000
Mg    0.445282500000    0.842396500000    0.602896000000
Mg    0.840703500000    0.842133500000    0.400008000000
Mg    0.827584500000    0.828150500000    0.999621000000
Mg    0.514311000000    0.800976000000    0.315465000000
Mg    0.699391000000    0.300414000000    0.684010000000
Mg    0.699391000000    0.699586000000    0.684010000000
Mg    0.514311000000    0.199024000000    0.315465000000
Mg    0.827584500000    0.171849500000    0.999621000000
Mg    0.840703500000    0.157866500000    0.400008000000
Mg    0.445282500000    0.157603500000    0.602896000000
Mg    0.541361000000    0.142995000000    0.000046000000
Mg    0.502089000000    0.500000000000    0.655152000000
Mg    0.815552000000    0.500000000000    0.713353000000
Mg    0.498692000000    0.500000000000    0.999139000000
Mg    0.844424000000    0.500000000000    0.345128000000
Mg    0.102992000000    0.500000000000    0.285884000000
Mg    0.041361000000    0.357005000000    0.000046000000
Mg    0.945282500000    0.342396500000    0.602896000000
Mg    0.340703500000    0.342133500000    0.400008000000
Mg    0.327584500000    0.328150500000    0.999621000000
Mg    0.014311000000    0.300976000000    0.315465000000
Mg    0.199391000000    0.800414000000    0.684010000000
Mg    0.199391000000    0.199586000000    0.684010000000
Mg    0.014311000000    0.699024000000    0.315465000000
Mg    0.327584500000    0.671849500000    0.999621000000
Mg    0.340703500000    0.657866500000    0.400008000000
Mg    0.945282500000    0.657603500000    0.602896000000
Mg    0.041361000000    0.642995000000    0.000046000000
Al    0.815193000000    0.000000000000    0.178720000000
Al    0.276072500000    0.909007500000    0.002438000000
Al    0.726406500000    0.907307500000    0.631115000000
Al    0.590899000000    0.407218000000    0.366783000000
Al    0.498963000000    0.318538000000    0.815372000000
Al    0.682492500000    0.317461500000    0.184483000000
Al    0.682492500000    0.682538500000    0.184483000000
Al    0.498963000000    0.681462000000    0.815372000000
Al    0.590899000000    0.592782000000    0.366783000000
Al    0.726406500000    0.092692500000    0.631115000000
Al    0.276072500000    0.090992500000    0.002438000000
Al    0.315193000000    0.500000000000    0.178720000000
Al    0.776072500000    0.409007500000    0.002438000000
Al    0.226406500000    0.407307500000    0.631115000000
Al    0.090899000000    0.907218000000    0.366783000000
Al    0.998963000000    0.818538000000    0.815372000000
Al    0.182492500000    0.817461500000    0.184483000000
Al    0.182492500000    0.182538500000    0.184483000000
Al    0.998963000000    0.181462000000    0.815372000000
Al    0.090899000000    0.092782000000    0.366783000000
Al    0.226406500000    0.592692500000    0.631115000000
Al    0.776072500000    0.590992500000    0.002438000000
%END BLOCK POSITIONS_FRAC
%BLOCK SPECIES_POT
Li li.gga.recpot
Mg mg.gga.recpot
Al al.gga.recpot
%END BLOCK SPECIES_POT
