ATOMIC_SPECIES
Al 26.981539 Al_ONCV_PBE-1.2.upf

LATTICE_CONSTANT
7.4984327225523  // add lattice constant

LATTICE_VECTORS
0.707106781187    0.000000000000    0.000000000000    
0.353553390593    0.612372435696    0.000000000000    
0.000000000000    0.000000000000    12.701705922171765   

ATOMIC_POSITIONS
Direct

Al
0.0
22
    -1.8031473591E-30 -1.8698495928E-30  1.2966244979E-04 1 1 1
     3.3333333330E-01  3.3333333330E-01  4.5290360802E-02 1 1 1
     6.6666666670E-01  6.6666666670E-01  9.0766351198E-02 1 1 1
    -1.7898522607E-30 -1.8565544944E-30  1.3591713785E-01 1 1 1
     3.3333333330E-01  3.3333333330E-01  1.8144963547E-01 1 1 1
    -1.7894711959E-30 -1.8561734296E-30  2.2687562593E-01 1 1 1
     5.3333333330E-01  5.3333333330E-01  2.7330234812E-01 1 1 1
     8.6666666670E-01  8.6666666670E-01  3.1864227780E-01 1 1 1
     2.0000000000E-01  2.0000000000E-01  3.6391562394E-01 1 1 1
     5.3333333330E-01  5.3333333330E-01  4.0903548058E-01 1 1 1
     8.6666666670E-01  8.6666666670E-01  4.5454545455E-01 1 1 1
     5.3333333330E-01  5.3333333330E-01  5.0005542852E-01 1 1 1
     2.0000000000E-01  2.0000000000E-01  5.4517528516E-01 1 1 1
     8.6666666670E-01  8.6666666670E-01  5.9044863130E-01 1 1 1
     5.3333333330E-01  5.3333333330E-01  6.3578856098E-01 1 1 1
    -1.7894711959E-30 -1.8561734296E-30  6.8221528317E-01 1 1 1
     3.3333333330E-01  3.3333333330E-01  7.2764127363E-01 1 1 1
    -1.7898522607E-30 -1.8565544944E-30  7.7317377125E-01 1 1 1
     6.6666666670E-01  6.6666666670E-01  8.1832455790E-01 1 1 1
     3.3333333330E-01  3.3333333330E-01  8.6380054830E-01 1 1 1
    -1.8031473591E-30 -1.8698495928E-30  9.0896124665E-01 1 1 1
     6.6666666670E-01  6.6666666670E-01  9.5454545455E-01 1 1 1
