%BLOCK LATTICE_CART
   2.645173247384713   0.000000003993825   0.000000010085425
   0.000000003993825   2.645173247829898  -0.000000002274424
   0.000000010085425  -0.000000002274424   2.645173247829899
%END BLOCK LATTICE_CART
%BLOCK POSITIONS_FRAC
    Al   0.000000000000000   0.000000000000000   0.000000000000000
%END BLOCK POSITIONS_FRAC
%BLOCK SPECIES_POT
    Al al.lda.recpot                                                                          
%END BLOCK SPECIES_POT
