%BLOCK LATTICE_CART
3.891742063080    0.000000000000    0.000000000000    
-1.945871031540    3.370347491604    0.000000000000    
0.000000000000    0.000000000000    6.444724856460    
%END BLOCK LATTICE_CART
%BLOCK POSITIONS_FRAC
Si    0.333333333333    0.666666666667    0.063100000000
Si    0.666666666667    0.333333333333    0.563100000000
Si    0.333333333333    0.666666666667    0.436900000000
Si    0.666666666667    0.333333333333    0.936900000000
%END BLOCK POSITIONS_FRAC
%BLOCK SPECIES_POT
Si si.gga.recpot
%END BLOCK SPECIES_POT
