%BLOCK LATTICE_CART
   2.617657493655276   0.000000005572628   0.000000010271862
   0.000000005572628   2.617657493938597   0.000000000769169
   0.000000010271862   0.000000000769169   2.617657493938895
%END BLOCK LATTICE_CART
%BLOCK POSITIONS_FRAC
    Al   0.000000000000000   0.000000000000000   0.000000000000000
%END BLOCK POSITIONS_FRAC
%BLOCK SPECIES_POT
    Al al.lda.recpot                                                                          
%END BLOCK SPECIES_POT
