%BLOCK LATTICE_CART
   2.807406101100000   0.000000000000000   0.000000000000000
   1.403703050550000   2.431285002292024   0.000000000000000
   0.000000000000003   0.000000000000002  50.688011207596944
%END BLOCK LATTICE_CART
%BLOCK POSITIONS_FRAC
    Al   0.000000000000000   0.000000000000000   0.000110446294424
    Al   0.333333333300000   0.333333333300000   0.045195600004873
    Al   0.666666666700000   0.666666666700000   0.090453216011648
    Al   0.000000000000000   0.000000000000000   0.135477274891086
    Al   0.333333333300000   0.333333333300000   0.181256209067687
    Al   0.000000000000000   0.000000000000000   0.226557349108474
    Al   0.566666666700000   0.566666666700000   0.273368349759943
    Al   0.900000000000000   0.900000000000000   0.318570194866722
    Al   0.233333333300000   0.233333333300000   0.363888764821082
    Al   0.566666666700000   0.566666666700000   0.408982364321549
    Al   0.900000000000000   0.900000000000000   0.454543586419143
    Al   0.566666666700000   0.566666666700000   0.500104970579386
    Al   0.233333333300000   0.233333333300000   0.545199091952601
    Al   0.900000000000000   0.900000000000000   0.590518401900179
    Al   0.566666666700000   0.566666666700000   0.635721104994630
    Al   1.000000000000000   1.000000000000000   0.682533161611387
    Al   0.333333333300000   0.333333333300000   0.727835325271113
    Al   1.000000000000000   1.000000000000000   0.773615376941977
    Al   0.666666666700000   0.666666666700000   0.818640209905806
    Al   0.333333333300000   0.333333333300000   0.863898494884873
    Al   0.000000000000000   0.000000000000000   0.908984032010836
    Al   0.666666666700000   0.666666666700000   0.954547320177982
%END BLOCK POSITIONS_FRAC
%BLOCK SPECIES_POT
    Al al.lda.recpot                                                                          
%END BLOCK SPECIES_POT
%BLOCK ION_OPTIMIZATION
           0           0           1
           0           0           1
           0           0           1
           0           0           1
           0           0           1
           0           0           1
           0           0           1
           0           0           1
           0           0           1
           0           0           1
           0           0           1
           0           0           1
           0           0           1
           0           0           1
           0           0           1
           0           0           1
           0           0           1
           0           0           1
           0           0           1
           0           0           1
           0           0           1
           0           0           1
%END BLOCK ION_OPTIMIZATION
