ATOMIC_SPECIES
Mg 24.305 mg.gga.psp blps
Al 26.981 al.gga.psp blps

LATTICE_CONSTANT
1.8897259885789233  // add lattice constant

LATTICE_VECTORS
10.436465940000    0.000000000000    0.000000000000    
0.000000000000    10.436465940000    0.000000000000    
0.000000000000    0.000000000000    10.436465940000    

ATOMIC_POSITIONS
Direct

Mg
0.0
34
    0.000000000000    0.000000000000    0.000000000000 1 1 1
    0.672986740000    0.327013260000    0.327013260000 1 1 1
    0.327013260000    0.672986740000    0.327013260000 1 1 1
    0.327013260000    0.327013260000    0.672986740000 1 1 1
    0.172986740000    0.172986740000    0.172986740000 1 1 1
    0.143154700000    0.856845300000    0.540747980000 1 1 1
    0.959252020000    0.356845300000    0.356845300000 1 1 1
    0.143154700000    0.540747980000    0.856845300000 1 1 1
    0.856845300000    0.143154700000    0.540747980000 1 1 1
    0.540747980000    0.143154700000    0.856845300000 1 1 1
    0.356845300000    0.959252020000    0.356845300000 1 1 1
    0.356845300000    0.356845300000    0.959252020000 1 1 1
    0.540747980000    0.856845300000    0.143154700000 1 1 1
    0.856845300000    0.540747980000    0.143154700000 1 1 1
    0.143154700000    0.143154700000    0.459252020000 1 1 1
    0.459252020000    0.143154700000    0.143154700000 1 1 1
    0.143154700000    0.459252020000    0.143154700000 1 1 1
    0.500000000000    0.500000000000    0.500000000000 1 1 1
    0.172986740000    0.827013260000    0.827013260000 1 1 1
    0.827013260000    0.172986740000    0.827013260000 1 1 1
    0.827013260000    0.827013260000    0.172986740000 1 1 1
    0.672986740000    0.672986740000    0.672986740000 1 1 1
    0.643154700000    0.356845300000    0.040747980000 1 1 1
    0.459252020000    0.856845300000    0.856845300000 1 1 1
    0.643154700000    0.040747980000    0.356845300000 1 1 1
    0.356845300000    0.643154700000    0.040747980000 1 1 1
    0.040747980000    0.643154700000    0.356845300000 1 1 1
    0.856845300000    0.459252020000    0.856845300000 1 1 1
    0.856845300000    0.856845300000    0.459252020000 1 1 1
    0.040747980000    0.356845300000    0.643154700000 1 1 1
    0.356845300000    0.040747980000    0.643154700000 1 1 1
    0.643154700000    0.643154700000    0.959252020000 1 1 1
    0.959252020000    0.643154700000    0.643154700000 1 1 1
    0.643154700000    0.959252020000    0.643154700000 1 1 1
Al
0.0
24
    0.909485445000    0.090514555000    0.276232095000 1 1 1
    0.723767905000    0.090514555000    0.090514555000 1 1 1
    0.909485445000    0.276232095000    0.090514555000 1 1 1
    0.090514555000    0.909485445000    0.276232095000 1 1 1
    0.276232095000    0.909485445000    0.090514555000 1 1 1
    0.090514555000    0.723767905000    0.090514555000 1 1 1
    0.090514555000    0.090514555000    0.723767905000 1 1 1
    0.276232095000    0.090514555000    0.909485445000 1 1 1
    0.090514555000    0.276232095000    0.909485445000 1 1 1
    0.409485445000    0.409485445000    0.223767905000 1 1 1
    0.223767905000    0.409485445000    0.409485445000 1 1 1
    0.409485445000    0.223767905000    0.409485445000 1 1 1
    0.409485445000    0.590514555000    0.776232095000 1 1 1
    0.223767905000    0.590514555000    0.590514555000 1 1 1
    0.409485445000    0.776232095000    0.590514555000 1 1 1
    0.590514555000    0.409485445000    0.776232095000 1 1 1
    0.776232095000    0.409485445000    0.590514555000 1 1 1
    0.590514555000    0.223767905000    0.590514555000 1 1 1
    0.590514555000    0.590514555000    0.223767905000 1 1 1
    0.776232095000    0.590514555000    0.409485445000 1 1 1
    0.590514555000    0.776232095000    0.409485445000 1 1 1
    0.909485445000    0.909485445000    0.723767905000 1 1 1
    0.723767905000    0.909485445000    0.909485445000 1 1 1
    0.909485445000    0.723767905000    0.909485445000 1 1 1
