%BLOCK LATTICE_CART
   2.812387583300000   0.000000000000000   0.000000000000000
   1.406193791650000   2.435599092425724   0.000000000000000
   0.000000000000003   0.000000000000002  45.991613301855459
%END BLOCK LATTICE_CART
%BLOCK POSITIONS_FRAC
    Al   0.000000000000000   0.000000000000000   0.000167063635817
    Al   0.333333333300000   0.333333333300000   0.049987931407140
    Al   0.666666666700000   0.666666666700000   0.099861710847700
    Al   0.000000000000000   0.000000000000000   0.149679131206433
    Al   0.333333333300000   0.333333333300000   0.199763224376000
    Al   0.000000000000000   0.000000000000000   0.250186910565722
    Al   0.333333333300000   0.333333333300000   0.300275636686013
    Al   0.666666666700000   0.666666666700000   0.350098947608548
    Al   0.000000000000000   0.000000000000000   0.399899606656170
    Al   0.333333333300000   0.333333333300000   0.449999963197907
    Al   0.000000000000000   0.000000000000000   0.500100382899639
    Al   0.666666666700000   0.666666666700000   0.549901126169760
    Al   0.333333333300000   0.333333333300000   0.599724423622900
    Al   0.000000000000000   0.000000000000000   0.649813070563248
    Al   0.333333333300000   0.333333333300000   0.700236704854185
    Al   0.000000000000000   0.000000000000000   0.750320847267983
    Al   0.666666666700000   0.666666666700000   0.800138355640847
    Al   0.333333333300000   0.333333333300000   0.850012140677698
    Al   0.000000000000000   0.000000000000000   0.899832917856393
    Al   0.666666666700000   0.666666666700000   0.949999959164282
%END BLOCK POSITIONS_FRAC
%BLOCK SPECIES_POT
    Al al.lda.recpot                                                                          
%END BLOCK SPECIES_POT
%BLOCK ION_OPTIMIZATION
           0           0           1
           0           0           1
           0           0           1
           0           0           1
           0           0           1
           0           0           1
           0           0           1
           0           0           1
           0           0           1
           0           0           1
           0           0           1
           0           0           1
           0           0           1
           0           0           1
           0           0           1
           0           0           1
           0           0           1
           0           0           1
           0           0           1
           0           0           1
%END BLOCK ION_OPTIMIZATION
