ATOMIC_SPECIES
Li 6.941 li.gga.psp.1 blps
Mg 24.305 mg.gga.psp blps

LATTICE_CONSTANT
1.8897259885789233  // add lattice constant

LATTICE_VECTORS
3.051255230000    0.000000000000    0.000000000000    
0.000000000000    5.055267120000    0.000000000000    
0.000000000000    0.000000000000    5.276943100000    

ATOMIC_POSITIONS
Direct

Li
0.0
3
    0.000000000000    0.000000000000    0.994525500000 1 1 1
    0.500000000000    0.000000000000    0.493403610000 1 1 1
    0.500000000000    0.500000000000    0.836006990000 1 1 1
Mg
0.0
1
    0.000000000000    0.500000000000    0.342730900000 1 1 1
