ATOMIC_SPECIES
Si 14 si.lda.lps

LATTICE_CONSTANT
10.220303457786414  // add lattice constant

LATTICE_VECTORS
1.000000000000    0.000000000000    0.000000000000    
0.000000000000    1.000000000000    0.000000000000    
0.000000000000    0.000000000000    1.000000000000    

ATOMIC_POSITIONS
Direct

Si
0.0
7
0.5 0.5 0.0 1 1 1
0.5 0.0 0.5 1 1 1
0.0 0.5 0.5 1 1 1
0.25 0.25 0.25 1 1 1
0.75 0.75 0.25 1 1 1
0.75 0.25 0.75 1 1 1
0.25 0.75 0.75 1 1 1
