%BLOCK LATTICE_CART
   0.001433055325789   2.108258562216634   2.108262151756178
   2.108259678918776   0.001438538022880   2.108257786931144
   2.108259054648156   2.108253573114627   0.001434904371121
%END BLOCK LATTICE_CART
%BLOCK POSITIONS_FRAC
    Li   0.000000000000000   0.000000000000000   0.000000000000000
%END BLOCK POSITIONS_FRAC
%BLOCK SPECIES_POT
    Li li.lda.recpot                                                                          
%END BLOCK SPECIES_POT
