ATOMIC_SPECIES
H 1.00 /home/saber/work/03a01_scan+lcao_test/tools_for_water/H_ONCV_PBE-1.0.upf
O 1.00 /home/saber/work/03a01_scan+lcao_test/tools_for_water/O_ONCV_PBE-1.0.upf

LATTICE_CONSTANT
1.8897259886

LATTICE_VECTORS
21.16708996 0.0 0.0 
0.0 21.16708996 0.0 
0.0 0.0 21.16708996 

NUMERICAL_ORBITAL
/home/saber/work/03a01_scan+lcao_test/orb/Orb_DZP_E100_Full/H/H_gga_6au_100Ry_2s1p.orb
/home/saber/work/03a01_scan+lcao_test/orb/Orb_DZP_E100_Full/O/O_gga_6au_100Ry_2s2p1d.orb
#/home/qiou/water_cluster/H_gga_10au_100Ry_3s2p.orb
#/home/qiou/water_cluster/O_gga_10au_100Ry_3s3p2d.orb

ATOMIC_POSITIONS
Cartesian    # Cartesian(Unit is LATTICE_CONSTANT)

H
0.0
2
3.608667 5.431455 4.292665 
4.102539 5.249263 5.753222 
O
0.0
1
4.290374 5.710696 4.899163 
