ATOMIC_SPECIES
Li 6.941 li.gga.psp.1 blps
Mg 24.305 mg.gga.psp blps

LATTICE_CONSTANT
1.8897259885789233  // add lattice constant

LATTICE_VECTORS
3.340249000000    0.000000000000    0.000000000000    
0.000000000000    4.912625000000    0.000000000000    
0.000000000000    0.000000000000    4.933959000000    

ATOMIC_POSITIONS
Direct

Li
0.0
2
    0.000000000000    0.750000000000    0.257117000000 1 1 1
    0.000000000000    0.250000000000    0.742883000000 1 1 1
Mg
0.0
2
    0.500000000000    0.250000000000    0.243873000000 1 1 1
    0.500000000000    0.750000000000    0.756127000000 1 1 1
