ATOMIC_SPECIES
Al 26.981539 Al_ONCV_PBE-1.2.upf

LATTICE_CONSTANT
7.4984327225523  // add lattice constant

LATTICE_VECTORS
0.707106781187    0.000000000000    0.000000000000    
0.353553390593    0.612372435696    0.000000000000    
0.000000000000    0.000000000000    11.547005383792515 

ATOMIC_POSITIONS
Direct

Al
0.0
20
    1.9853763213E-30  1.9853763213E-30  1.0353864052E-04 1 1 1
    3.3333333330E-01  3.3333333330E-01  4.9740105042E-02 1 1 1
    6.6666666670E-01  6.6666666670E-01  9.9717369822E-02 1 1 1
    1.9210461400E-30  1.9210461400E-30  1.4947246107E-01 1 1 1
    3.3333333330E-01  3.3333333330E-01  1.9937006002E-01 1 1 1
    8.6666666670E-01  8.6666666670E-01  2.5071646785E-01 1 1 1
    2.0000000000E-01  2.0000000000E-01  3.0054627318E-01 1 1 1
    5.3333333330E-01  5.3333333330E-01  3.5036766458E-01 1 1 1
    8.6666666670E-01  8.6666666670E-01  3.9997675389E-01 1 1 1
    2.0000000000E-01  2.0000000000E-01  4.5000000000E-01 1 1 1
    8.6666666670E-01  8.6666666670E-01  5.0002324611E-01 1 1 1
    5.3333333330E-01  5.3333333330E-01  5.4963233542E-01 1 1 1
    2.0000000000E-01  2.0000000000E-01  5.9945372682E-01 1 1 1
    8.6666666670E-01  8.6666666670E-01  6.4928353215E-01 1 1 1
    3.3333333330E-01  3.3333333330E-01  7.0062993998E-01 1 1 1
    1.9210461400E-30  1.9210461400E-30  7.5052753893E-01 1 1 1
    6.6666666670E-01  6.6666666670E-01  8.0028263018E-01 1 1 1
    3.3333333330E-01  3.3333333330E-01  8.5025989496E-01 1 1 1
    1.9853763213E-30  1.9853763213E-30  8.9989646136E-01 1 1 1
    6.6666666670E-01  6.6666666670E-01  9.5000000000E-01 1 1 1
