ATOMIC_SPECIES
Ga  Ga_mass  Ga_pesudopotential
P  P_mass  P_pesudopotential
H  H_mass  H_pesudopotential
O  O_mass  O_pesudopotential

NUMERICAL_ORBITAL
Ga_orbital
P_orbital
H_orbital
O_orbital

LATTICE_CONSTANT
1.889727000000

LATTICE_VECTORS
15.605759999987  0.000000000000  0.000000000000
0.000000000000  16.552409999993  0.000000000000
0.000000000000  0.000000000000  30.388121999996

ATOMIC_POSITIONS
Direct

Ga
0
60
0.374819107227  0.163926188966  0.063871172809  1  1  1
0.375121635017  0.830463132688  0.064474295650  1  1  1
0.377002625830  0.497420699757  0.064760398385  1  1  1
0.874848868732  0.163360329832  0.063901336553  1  1  1
0.875123984536  0.830428607643  0.064270100816  1  1  1
0.874638102378  0.496427386549  0.064822880877  1  1  1
0.374819508469  0.163854818707  0.197079616841  1  1  1
0.375125144305  0.830486511424  0.196410262357  1  1  1
0.376964083911  0.497412055103  0.196059109574  1  1  1
0.874872586723  0.163274551382  0.197049136584  1  1  1
0.875148589731  0.830444800126  0.196652220666  1  1  1
0.874664482932  0.496394388652  0.196021898509  1  1  1
0.000024051235  0.024730281461  0.016730095100  1  1  1
0.999099836546  0.676534998290  0.013687936917  1  1  1
0.000043420486  0.354989960654  0.017045875531  1  1  1
0.499954866380  0.024243200026  0.016777549650  1  1  1
0.498544787106  0.674272947685  0.007826059036  1  1  1
0.501446702730  0.355413562126  0.016343839122  1  1  1
0.250174266527  0.024064500753  0.016627761562  1  1  1
0.250888809058  0.688052210341  0.017342138777  1  1  1
0.252021610248  0.358543246147  0.015866542909  1  1  1
0.749948750948  0.023783573594  0.016704479836  1  1  1
0.747043601011  0.686256494959  0.015972553639  1  1  1
0.748942571331  0.356348196474  0.016252818998  1  1  1
0.125633098824  0.163775249808  0.063828116943  1  1  1
0.124975710413  0.831795095562  0.064590991391  1  1  1
0.125311169859  0.496517739522  0.065019349709  1  1  1
0.625269105082  0.163793796138  0.063923194313  1  1  1
0.624822331581  0.830485311587  0.064083655597  1  1  1
0.623699034844  0.496398327540  0.064158775930  1  1  1
0.000000000000  0.000000000000  0.130439996734  0  0  0
0.000000000000  0.666670024140  0.130439996734  0  0  0
0.000000000000  0.333330005400  0.130439996734  0  0  0
0.500000000025  0.000000000000  0.130439996734  0  0  0
0.500000000025  0.666670024140  0.130439996734  0  0  0
0.500000000025  0.333330005400  0.130439996734  0  0  0
0.249999999980  0.000000000000  0.130439996734  0  0  0
0.249999999980  0.666670024140  0.130439996734  0  0  0
0.249999999980  0.333330005400  0.130439996734  0  0  0
0.750000000266  0.000000000000  0.130439996734  0  0  0
0.750000000266  0.666670024140  0.130439996734  0  0  0
0.750000000266  0.333330005400  0.130439996734  0  0  0
0.125613124702  0.163715845685  0.197117329870  1  1  1
0.124978428244  0.831858535024  0.196276026743  1  1  1
0.125306178129  0.496541170705  0.195802832823  1  1  1
0.625263313175  0.163712147096  0.197030332501  1  1  1
0.624832586229  0.830551044565  0.196803760686  1  1  1
0.623722528765  0.496288932417  0.196760126848  1  1  1
0.000026483039  0.024729771099  0.244253771848  1  1  1
0.999124786908  0.676501421772  0.247133911202  1  1  1
0.000048546568  0.354963085494  0.243882915666  1  1  1
0.499952846961  0.024235793846  0.244199999793  1  1  1
0.498574876477  0.674211200816  0.252820616892  1  1  1
0.501449917731  0.355403727435  0.244493057018  1  1  1
0.250175821259  0.024052910383  0.244314365815  1  1  1
0.250922734313  0.688024038670  0.243523624719  1  1  1
0.252010598096  0.358589664108  0.244922973159  1  1  1
0.749948663481  0.023768453998  0.244255145621  1  1  1
0.747123674016  0.686243195894  0.244745175132  1  1  1
0.748936961279  0.356303467975  0.244565704783  1  1  1

P
0
60
0.374938596832  0.092124635687  0.995253142379  1  1  1
0.374560701564  0.756320947773  0.997143786296  1  1  1
0.377497695124  0.426498766614  0.995334536839  1  1  1
0.874842048969  0.091919783648  0.995181628773  1  1  1
0.875000300285  0.752065686235  0.997043634740  1  1  1
0.876073802120  0.424682850896  0.995947057019  1  1  1
0.375000000004  0.083329997984  0.130439996734  0  0  0
0.375000000004  0.749999999849  0.130439996734  0  0  0
0.375000000004  0.416669994571  0.130439996734  0  0  0
0.875000000095  0.083329997984  0.130439996734  0  0  0
0.875000000095  0.749999999849  0.130439996734  0  0  0
0.875000000095  0.416669994571  0.130439996734  0  0  0
0.374928828551  0.092101848871  0.265717618068  1  1  1
0.374633394102  0.756234614690  0.263687848095  1  1  1
0.377501606295  0.426503248393  0.265479512992  1  1  1
0.874833208881  0.091905423108  0.265799823799  1  1  1
0.875022759747  0.751991005058  0.263823544528  1  1  1
0.876048919586  0.424670012834  0.264899582259  1  1  1
0.125208196636  0.092046837493  0.995157330472  1  1  1
0.123003950021  0.753364824577  0.996944645977  1  1  1
0.124027903093  0.425269185893  0.995953167679  1  1  1
0.625150771903  0.091885935723  0.995278374473  1  1  1
0.622883471517  0.755735831970  0.996190156278  1  1  1
0.625229655453  0.425187855731  0.994964745532  1  1  1
0.000173265945  0.247398031688  0.066914087110  1  1  1
0.999788925937  0.914727036686  0.066245962032  1  1  1
0.000063610098  0.579051461786  0.068582738452  1  1  1
0.500012598040  0.247777228698  0.066715278962  1  1  1
0.499972637223  0.914684873568  0.066431152221  1  1  1
0.500389608931  0.582185186705  0.067022501814  1  1  1
0.250035587965  0.249591421941  0.066074666276  1  1  1
0.250149154034  0.914570144020  0.066377542151  1  1  1
0.250267600622  0.580224906255  0.067079007901  1  1  1
0.750610018345  0.248350713064  0.066524928164  1  1  1
0.750146967405  0.914051793186  0.066282919133  1  1  1
0.749489813242  0.580204309495  0.066945368336  1  1  1
0.125000000022  0.083329997984  0.130439996734  0  0  0
0.125000000022  0.749999999849  0.130439996734  0  0  0
0.125000000022  0.416669994571  0.130439996734  0  0  0
0.624999999984  0.083329997984  0.130439996734  0  0  0
0.624999999984  0.749999999849  0.130439996734  0  0  0
0.624999999984  0.416669994571  0.130439996734  0  0  0
0.000170053927  0.247376627578  0.193981564326  1  1  1
0.999787617733  0.914795039094  0.194674642632  1  1  1
0.000057028197  0.579031068927  0.192254280088  1  1  1
0.500013433197  0.247720185369  0.194157992960  1  1  1
0.499969463807  0.914752697917  0.194474597122  1  1  1
0.500411785261  0.582049850923  0.193715909576  1  1  1
0.250032223244  0.249533973351  0.194808823919  1  1  1
0.250161245055  0.914616003706  0.194514503501  1  1  1
0.250262010424  0.580218873650  0.193767500667  1  1  1
0.750619221691  0.248266007285  0.194335846218  1  1  1
0.750174651994  0.914100907014  0.194621420301  1  1  1
0.749504389768  0.580098639912  0.193862866251  1  1  1
0.125223783716  0.092032640152  0.265812717533  1  1  1
0.123021929329  0.753340861068  0.263879693911  1  1  1
0.124044830649  0.425311162762  0.264875623817  1  1  1
0.625155224050  0.091862512448  0.265697162601  1  1  1
0.622926366464  0.755591721769  0.264589269126  1  1  1
0.625245646077  0.425097497842  0.265939633790  1  1  1

H
0
38
0.577521614419  0.676674217199  0.379775996455  1  1  1
0.626467423205  0.482374972502  0.372255273991  1  1  1
0.678795731646  0.733427870581  0.339223873756  1  1  1
0.496130280190  0.728050059066  0.369549561000  1  1  1
0.501691674753  0.626220647480  0.337229642917  1  1  1
0.532751447436  0.828870985649  0.329510635677  1  1  1
0.435318441739  0.815839889637  0.325819556411  1  1  1
0.709674843094  0.752396144189  0.386964070592  1  1  1
0.455774092778  0.554248609120  0.304404793301  1  1  1
0.627469884437  0.487383814177  0.396971690886  1  1  1
0.577855623508  0.677853724188  0.880534154392  1  1  1
0.626935029258  0.482762960283  0.888313650770  1  1  1
0.678318343653  0.735256446030  0.921463285476  1  1  1
0.495954186185  0.728464819347  0.890699125994  1  1  1
0.502109796769  0.626862148938  0.923143494841  1  1  1
0.531998524348  0.828885769584  0.930929480159  1  1  1
0.434648603755  0.815634006034  0.934740723347  1  1  1
0.708809697942  0.756057769852  0.873888157809  1  1  1
0.456059136863  0.554721503047  0.955759810432  1  1  1
0.627753230716  0.488299636124  0.863625880275  1  1  1
0.094764782728  0.674063766187  0.374432139985  1  1  1
0.189239183775  0.722206417533  0.334662944545  1  1  1
0.005892417508  0.727334211736  0.362617456385  1  1  1
0.014835042175  0.626043916192  0.351383966696  1  1  1
0.037026432297  0.811635528743  0.325044823332  1  1  1
0.938431276981  0.796778782205  0.324629469544  1  1  1
0.231112669770  0.717799031557  0.382069480995  1  1  1
0.950545489709  0.536651950544  0.301184535318  1  1  1
0.050618897642  0.534516352451  0.298475910315  1  1  1
0.094797386723  0.674374810070  0.886319274088  1  1  1
0.189121809610  0.722752117199  0.926024133289  1  1  1
0.005762400503  0.727359225413  0.898124548930  1  1  1
0.014961167038  0.626115333065  0.909342982529  1  1  1
0.036696303400  0.811796157898  0.935692007285  1  1  1
0.938154626593  0.796716292525  0.936156217510  1  1  1
0.230553643330  0.718953349328  0.878504872110  1  1  1
0.950587045032  0.536731756344  0.959472591686  1  1  1
0.050645907623  0.534503162888  0.962234872462  1  1  1

O
0
16
0.685355346590  0.709322052170  0.368871127427  1  1  1
0.514133027519  0.671162050873  0.376675322301  1  1  1
0.481320618918  0.823835587094  0.348087149677  1  1  1
0.498341982668  0.598138576857  0.305315497292  1  1  1
0.685278218400  0.712081173690  0.891613243067  1  1  1
0.514540242936  0.671720933151  0.883624340964  1  1  1
0.480494628164  0.823880049931  0.912413800452  1  1  1
0.498477711587  0.598742264267  0.955042006656  1  1  1
0.189761272411  0.691277847115  0.362690904211  1  1  1
0.028855567013  0.667926292760  0.374776052146  1  1  1
0.988347235775  0.802584250924  0.345666037359  1  1  1
0.001905846978  0.572065514221  0.305809423147  1  1  1
0.189717985661  0.691915957058  0.897961425249  1  1  1
0.028888063537  0.668070336071  0.885974023201  1  1  1
0.988029178229  0.802600394283  0.915091809122  1  1  1
0.001985006861  0.572101348384  0.954873888799  1  1  1
