INPUT_PARAMETERS
#Parameters (1.General)
suffix          GaP-111-2H3O
calculation     scf
ntype           4
nbands          640
symmetry        0

#Parameters (2.Iteration)
ecutwfc         60
dr2             1e-6
niter           100

#Parameters (3.Basis)
basis_type      lcao
ks_solver       genelpa
gamma_only      0

#Parameters (4.Smearing)
smearing        gaussian
sigma           0.001

#Parameters (5.Mixing)
mixing_type     pulay
mixing_beta     0.3

out_charge      1
out_potential   2
