ATOMIC_SPECIES
Ga  Ga_mass  Ga_pesudopotential
P  P_mass  P_pesudopotential
H  H_mass  H_pesudopotential
O  O_mass  O_pesudopotential

NUMERICAL_ORBITAL
Ga_orbital
P_orbital
H_orbital
O_orbital

LATTICE_CONSTANT
1.889727000000

LATTICE_VECTORS
15.605759999987  0.000000000000  0.000000000000
0.000000000000  16.552409999993  0.000000000000
0.000000000000  0.000000000000  30.388121999996

ATOMIC_POSITIONS
Direct

Ga
0
60
0.380194151567  0.169287294688  0.064919206599  1  1  1
0.375154682433  0.831565311962  0.064970447445  1  1  1
0.375611872171  0.490519790992  0.063079236049  1  1  1
0.874826121081  0.163811455913  0.064151127720  1  1  1
0.875202919197  0.830835189138  0.064440295414  1  1  1
0.875270127394  0.496601132154  0.064990221360  1  1  1
0.380182178935  0.169270540531  0.195931408305  1  1  1
0.375160448650  0.831582827219  0.195892034888  1  1  1
0.375600379921  0.490510064313  0.197757357907  1  1  1
0.874829280586  0.163757896531  0.196803713948  1  1  1
0.875195539832  0.830856504796  0.196454272176  1  1  1
0.875274788118  0.496522440456  0.195875676804  1  1  1
0.000261257861  0.025853884227  0.017166559273  1  1  1
0.999045094355  0.677103851623  0.013587110883  1  1  1
0.000286393159  0.354835225488  0.017376203252  1  1  1
0.499836053461  0.026235192604  0.016554809668  1  1  1
0.496568061551  0.675819550696  0.014204364960  1  1  1
0.486694332057  0.306751460806  0.979661863285  1  1  1
0.251183660633  0.025765140899  0.016624585279  1  1  1
0.248418299789  0.685027870825  0.018152136293  1  1  1
0.250980761737  0.363201928449  0.013803718230  1  1  1
0.749061598404  0.025276848253  0.016789016984  1  1  1
0.749043562718  0.687728195054  0.017624532510  1  1  1
0.755825224036  0.354935740717  0.017428105316  1  1  1
0.127986182024  0.165314761416  0.063972177166  1  1  1
0.125082277940  0.832246851124  0.064800462370  1  1  1
0.125040907667  0.497002163979  0.065240338919  1  1  1
0.618317640472  0.166969234419  0.064589103217  1  1  1
0.624576619356  0.831913292513  0.064548660307  1  1  1
0.625170084156  0.496596973662  0.065668151406  1  1  1
0.000000000000  0.000000000000  0.130439996734  0  0  0
0.000000000000  0.666670024140  0.130439996734  0  0  0
0.000000000000  0.333330005400  0.130439996734  0  0  0
0.500000000025  0.000000000000  0.130439996734  0  0  0
0.500000000025  0.666670024140  0.130439996734  0  0  0
0.500000000025  0.333330005400  0.130439996734  0  0  0
0.249999999980  0.000000000000  0.130439996734  0  0  0
0.249999999980  0.666670024140  0.130439996734  0  0  0
0.249999999980  0.333330005400  0.130439996734  0  0  0
0.750000000266  0.000000000000  0.130439996734  0  0  0
0.750000000266  0.666670024140  0.130439996734  0  0  0
0.750000000266  0.333330005400  0.130439996734  0  0  0
0.127911706849  0.165264066201  0.196978896491  1  1  1
0.125059101307  0.832312520475  0.196072623588  1  1  1
0.125045537061  0.496995318233  0.195582976824  1  1  1
0.618360840218  0.166937795640  0.196313484744  1  1  1
0.624587396303  0.831868686136  0.196362215272  1  1  1
0.625132895916  0.496566688976  0.195172833372  1  1  1
0.000247789445  0.025824143167  0.243908183383  1  1  1
0.999135153895  0.677015282596  0.247224752666  1  1  1
0.000246964251  0.354800378002  0.243612700491  1  1  1
0.499837283891  0.026222773228  0.244369504090  1  1  1
0.496473138869  0.675748670474  0.246664285458  1  1  1
0.486757404978  0.306635032479  0.281131412476  1  1  1
0.251193697184  0.025768620110  0.244305306702  1  1  1
0.248430431576  0.685042537063  0.242711988798  1  1  1
0.250954791128  0.363157415659  0.247038646329  1  1  1
0.749059481850  0.025249028287  0.244212121666  1  1  1
0.748985732289  0.687433641975  0.243275930090  1  1  1
0.755824110468  0.354900770824  0.243540696219  1  1  1

P
0
60
0.375363033515  0.094516914200  0.995792024497  1  1  1
0.373651731371  0.752977497600  0.998085798781  1  1  1
0.376266146172  0.426136841149  0.994287298425  1  1  1
0.874745092828  0.092373980376  0.995435479733  1  1  1
0.875099978203  0.753037308373  0.996658595218  1  1  1
0.877527703483  0.425452906678  0.995574696140  1  1  1
0.375000000004  0.083329997984  0.130439996734  0  0  0
0.375000000004  0.749999999849  0.130439996734  0  0  0
0.375000000004  0.416669994571  0.130439996734  0  0  0
0.875000000095  0.083329997984  0.130439996734  0  0  0
0.875000000095  0.749999999849  0.130439996734  0  0  0
0.875000000095  0.416669994571  0.130439996734  0  0  0
0.375374754286  0.094562636687  0.265085797448  1  1  1
0.373635084400  0.753001792096  0.262796519488  1  1  1
0.376300735597  0.425991317134  0.266516283782  1  1  1
0.874718613574  0.092413393117  0.265567018391  1  1  1
0.875055926012  0.752819005615  0.264137761129  1  1  1
0.877498214752  0.425512677311  0.265359997532  1  1  1
0.125438356179  0.092609518831  0.995367988686  1  1  1
0.123164102697  0.753533665894  0.996915923274  1  1  1
0.120716916851  0.427334592423  0.995794569051  1  1  1
0.624915727243  0.093357840503  0.995426091159  1  1  1
0.621374669694  0.752161836549  0.996619464777  1  1  1
0.622031619450  0.411143481979  0.001972455541  1  1  1
0.000434764043  0.247230664560  0.067052822672  1  1  1
0.999777688103  0.915024950047  0.066113592244  1  1  1
0.999916561903  0.579883842652  0.068543687171  1  1  1
0.500658006824  0.257234590489  0.063030942365  1  1  1
0.499836815442  0.915273430149  0.065927411819  1  1  1
0.499056744354  0.577897525665  0.068523291729  1  1  1
0.251002808932  0.252543782361  0.064978855633  1  1  1
0.250191992807  0.915023403998  0.065974234351  1  1  1
0.250854589974  0.579026992145  0.067939722204  1  1  1
0.749689049910  0.247463641248  0.067065119715  1  1  1
0.750256858495  0.914302676695  0.065878708298  1  1  1
0.750252568888  0.580335557694  0.067249622801  1  1  1
0.125000000022  0.083329997984  0.130439996734  0  0  0
0.125000000022  0.749999999849  0.130439996734  0  0  0
0.125000000022  0.416669994571  0.130439996734  0  0  0
0.624999999984  0.083329997984  0.130439996734  0  0  0
0.624999999984  0.749999999849  0.130439996734  0  0  0
0.624999999984  0.416669994571  0.130439996734  0  0  0
0.000399130784  0.247251612215  0.193866813398  1  1  1
0.999744133461  0.915109846383  0.194840118020  1  1  1
0.999908946928  0.579811155027  0.192282301250  1  1  1
0.500675093849  0.257178888835  0.197825851724  1  1  1
0.499869418741  0.915271243825  0.194982990879  1  1  1
0.499034108876  0.577869028545  0.192328641689  1  1  1
0.250955801609  0.252486682535  0.195893615824  1  1  1
0.250193133135  0.915055411657  0.194921911905  1  1  1
0.250851131450  0.579022198829  0.192940584900  1  1  1
0.749716119451  0.247471856954  0.193844561996  1  1  1
0.750249264065  0.914338167293  0.195056701490  1  1  1
0.750238480614  0.580224019147  0.193581889446  1  1  1
0.125465425725  0.092607498921  0.265614244669  1  1  1
0.123167311582  0.753531572348  0.263945567551  1  1  1
0.120730661588  0.427353568312  0.265053247551  1  1  1
0.624896235594  0.093397798212  0.265506181617  1  1  1
0.621374703284  0.751985418151  0.264261000394  1  1  1
0.621974766865  0.411097704524  0.258860570444  1  1  1

H
0
38
0.575662000261  0.677181217514  0.373965874901  1  1  1
0.653714361083  0.469338770730  0.290200901542  1  1  1
0.673022470280  0.716458347488  0.334152158216  1  1  1
0.492924753975  0.737798156567  0.360033127307  1  1  1
0.492739123339  0.633760166686  0.351188935931  1  1  1
0.533315513517  0.817759096378  0.323257473040  1  1  1
0.434250176373  0.804662762679  0.320303428368  1  1  1
0.708791055791  0.721995801906  0.382700694226  1  1  1
0.431766489833  0.536078996242  0.299260755867  1  1  1
0.531542236821  0.537772398889  0.302834890707  1  1  1
0.575923674493  0.678719978008  0.886694563909  1  1  1
0.653906977230  0.469382137432  0.970667933368  1  1  1
0.672674437405  0.719214430621  0.926522582012  1  1  1
0.492664846698  0.738298417548  0.900727212382  1  1  1
0.493375475701  0.634289013621  0.909449071897  1  1  1
0.532735379919  0.818447530796  0.937491155126  1  1  1
0.433794520477  0.804809034098  0.940595273092  1  1  1
0.707693177939  0.726638130916  0.877879030964  1  1  1
0.431964106117  0.536521099368  0.961382284477  1  1  1
0.531717897053  0.537973779813  0.957929824237  1  1  1
0.095782420520  0.676231517358  0.373933200536  1  1  1
0.185996354814  0.725489969449  0.333776330094  1  1  1
0.006313954359  0.727097948513  0.362033347713  1  1  1
0.017205314552  0.626034878020  0.350342240504  1  1  1
0.037064106135  0.812272790214  0.324837192998  1  1  1
0.938541904989  0.797691383173  0.324501225240  1  1  1
0.221443403834  0.736461097198  0.382123209148  1  1  1
0.951334035633  0.537731353086  0.301762769641  1  1  1
0.051225091020  0.533761127567  0.297862296990  1  1  1
0.095674145687  0.675443422927  0.886874443574  1  1  1
0.185653421320  0.724079131451  0.927522276542  1  1  1
0.006440670171  0.726749561721  0.898561481682  1  1  1
0.016707694852  0.625693820530  0.910294477941  1  1  1
0.037551321093  0.811921731961  0.935821085290  1  1  1
0.938991217612  0.797675018800  0.936123024645  1  1  1
0.222770185210  0.733989393145  0.879428712572  1  1  1
0.951062467629  0.537524461931  0.959067859916  1  1  1
0.050962814394  0.533714162052  0.962810228885  1  1  1

O
0
16
0.673090992975  0.688745852975  0.363424333414  1  1  1
0.509499721820  0.676164439500  0.373756327727  1  1  1
0.482346619261  0.811469699866  0.342727902899  1  1  1
0.481970787065  0.573965374427  0.306695240789  1  1  1
0.672955978792  0.692265073219  0.897032746369  1  1  1
0.509738996212  0.676880953360  0.886923697609  1  1  1
0.481737166804  0.811885383820  0.918093556049  1  1  1
0.482256225406  0.574274773355  0.953991960864  1  1  1
0.189862591050  0.699007039524  0.363247163021  1  1  1
0.029958243638  0.668085296752  0.374090603066  1  1  1
0.988523722384  0.803091987394  0.345558190028  1  1  1
0.003266377480  0.572413398014  0.305977488716  1  1  1
0.189767447688  0.697338122751  0.898117964775  1  1  1
0.029804376936  0.667659092099  0.886534391603  1  1  1
0.988990316118  0.802894440030  0.915088074981  1  1  1
0.002926176772  0.572249367899  0.954701496761  1  1  1
