ATOMIC_SPECIES
Ga  Ga_mass  Ga_pesudopotential
P  P_mass  P_pesudopotential
H  H_mass  H_pesudopotential
O  O_mass  O_pesudopotential

NUMERICAL_ORBITAL
Ga_orbital
P_orbital
H_orbital
O_orbital

LATTICE_CONSTANT
1.889727000000

LATTICE_VECTORS
46.817279999960  0.000000000000  0.000000000000
0.000000000000  30.388121999996  0.000000000000
0.000000000000  0.000000000000  49.657229999978

ATOMIC_POSITIONS
Direct

Ga
0
540
0.125103293441  0.064206364518  0.055067984114  1  1  1
0.127348487053  0.064536584907  0.389142896376  1  1  1
0.127204902967  0.064749552149  0.723351986905  1  1  1
0.460418703161  0.064743351720  0.056764399563  1  1  1
0.460513691097  0.064756284478  0.390066483984  1  1  1
0.460525007225  0.064750360639  0.723377296132  1  1  1
0.793789695298  0.064751563249  0.056744710954  1  1  1
0.793845774232  0.064758424177  0.390079287747  1  1  1
0.793862560879  0.064755689104  0.723380989778  1  1  1
0.125126548283  0.064275305529  0.276575599425  1  1  1
0.125220804794  0.064561276926  0.610787192444  1  1  1
0.125026816321  0.064421755020  0.943198857790  1  1  1
0.458539618276  0.064576208414  0.277462089269  1  1  1
0.458550539165  0.064572884557  0.610817981222  1  1  1
0.458548113540  0.064561428727  0.944149708661  1  1  1
0.791879096002  0.064584368521  0.277470839616  1  1  1
0.791884913227  0.064567367570  0.610816812432  1  1  1
0.791875780496  0.064578812897  0.944152491452  1  1  1
0.125384072683  0.064434262611  0.165911371703  1  1  1
0.125199547863  0.063778062842  0.497011355492  1  1  1
0.125199389575  0.063781267417  0.830353032202  1  1  1
0.458458182961  0.063789288618  0.163724531243  1  1  1
0.458532272527  0.063775932584  0.497039015147  1  1  1
0.458530952144  0.063777632832  0.830369872344  1  1  1
0.791853040049  0.063800382636  0.163720265443  1  1  1
0.791861286484  0.063779593694  0.497045156157  1  1  1
0.791856349414  0.063785781262  0.830373662184  1  1  1
0.292116992224  0.064218503174  0.054960366390  1  1  1
0.291994880304  0.064274429469  0.388341032290  1  1  1
0.292000381753  0.064262780687  0.721693149665  1  1  1
0.625317911113  0.064255613616  0.055052868285  1  1  1
0.625333430532  0.064257032625  0.388386332398  1  1  1
0.625330656309  0.064258693195  0.721705634906  1  1  1
0.958305383572  0.064295700473  0.055042337161  1  1  1
0.958665762505  0.064269301494  0.388391134846  1  1  1
0.958660484319  0.064260494174  0.721696804765  1  1  1
0.291744476443  0.064312398935  0.277412890879  1  1  1
0.291825048732  0.064369064227  0.610758486531  1  1  1
0.291853945542  0.064386808077  0.944074067826  1  1  1
0.625157806047  0.064365730341  0.277478556042  1  1  1
0.625155913560  0.064364887306  0.610794511403  1  1  1
0.625152530456  0.064363835680  0.944141988456  1  1  1
0.958450114249  0.064346823084  0.277498089101  1  1  1
0.958488099783  0.064370039265  0.610784590462  1  1  1
0.958394338185  0.064269919601  0.943384630095  1  1  1
0.291907885307  0.064134392801  0.165714869858  1  1  1
0.292074882167  0.064211812330  0.498996677674  1  1  1
0.292085112359  0.064221409197  0.832330830391  1  1  1
0.625401989395  0.064205099704  0.165694365150  1  1  1
0.625408388745  0.064209946352  0.499014559034  1  1  1
0.625406056494  0.064206982627  0.832344788176  1  1  1
0.958749647469  0.064220971452  0.165730166226  1  1  1
0.958741165133  0.064206442830  0.499008333481  1  1  1
0.958735376134  0.064217373165  0.832332471272  1  1  1
0.125106237579  0.196506499308  0.055090129260  1  1  1
0.127361291023  0.196165922417  0.389144025983  1  1  1
0.127213294939  0.195983481841  0.723354307890  1  1  1
0.460435843189  0.195978486014  0.056765668824  1  1  1
0.460526829444  0.195963090144  0.390083156985  1  1  1
0.460540093025  0.195983024451  0.723377523260  1  1  1
0.793814232451  0.195979841451  0.056749123041  1  1  1
0.793862129179  0.195966507320  0.390090602769  1  1  1
0.793872948648  0.195977832815  0.723387487697  1  1  1
0.125314894016  0.196542614121  0.276618329924  1  1  1
0.125228884408  0.196352640523  0.610088227100  1  1  1
0.125092560233  0.196354437069  0.943228630953  1  1  1
0.458500982789  0.196176266241  0.277595139798  1  1  1
0.458558139392  0.196326231315  0.610189786251  1  1  1
0.458552552496  0.196298294610  0.943669376543  1  1  1
0.791843196200  0.196174772909  0.277587836921  1  1  1
0.791890619632  0.196322354721  0.610206695714  1  1  1
0.791883657357  0.196300992305  0.943606682704  1  1  1
0.125522193603  0.196334373753  0.166007012042  1  1  1
0.125231180533  0.197651141882  0.496955025038  1  1  1
0.125222389343  0.197507782849  0.830304874383  1  1  1
0.458592906593  0.198578687561  0.163675489910  1  1  1
0.458563869896  0.197709294942  0.496973965713  1  1  1
0.458567351312  0.197997130737  0.830282134244  1  1  1
0.791990041926  0.198573947473  0.163674851703  1  1  1
0.791895506182  0.197791508481  0.496972317592  1  1  1
0.791896220331  0.197759267035  0.830305486666  1  1  1
0.292111865230  0.196498321034  0.054965093056  1  1  1
0.291994784363  0.196413006578  0.388342338459  1  1  1
0.292000189375  0.196437271945  0.721705177556  1  1  1
0.625322906522  0.196450066782  0.055063952729  1  1  1
0.625334502740  0.196438198584  0.388393688550  1  1  1
0.625333528175  0.196443614326  0.721715416591  1  1  1
0.958310751068  0.196400020739  0.055053498977  1  1  1
0.958669366590  0.196425439503  0.388400923104  1  1  1
0.958661105981  0.196441412068  0.721708794287  1  1  1
0.291687727102  0.196401847293  0.277555917515  1  1  1
0.291830474703  0.196321291158  0.610826828101  1  1  1
0.291829153750  0.196300130740  0.944202435221  1  1  1
0.625231013419  0.196267491853  0.277666606184  1  1  1
0.625164192593  0.196327990554  0.610853947811  1  1  1
0.625156651660  0.196332408598  0.944192072952  1  1  1
0.958562315457  0.196288576891  0.277688537919  1  1  1
0.958496097060  0.196321365773  0.610850603993  1  1  1
0.958427824417  0.196308205554  0.944122983827  1  1  1
0.291893322274  0.196581006170  0.165751047996  1  1  1
0.292050495884  0.196507141884  0.499035051857  1  1  1
0.292067639757  0.196499444830  0.832363700094  1  1  1
0.625278253957  0.196553287218  0.165823245956  1  1  1
0.625382392193  0.196510408630  0.499057441268  1  1  1
0.625382797229  0.196513641661  0.832387354911  1  1  1
0.958653917377  0.196530636242  0.165870257045  1  1  1
0.958713758544  0.196511487523  0.499050943950  1  1  1
0.958712690196  0.196508127174  0.832374751992  1  1  1
0.999318811139  0.015623870711  0.007411378523  1  1  1
0.000687069839  0.015540543124  0.340993888410  1  1  1
0.000635928440  0.015614712825  0.674221810333  1  1  1
0.334030382207  0.015560458839  0.007516021933  1  1  1
0.333888436823  0.015629424484  0.340874340861  1  1  1
0.333979730642  0.015618464536  0.674217539677  1  1  1
0.667279838747  0.015588939871  0.007551245248  1  1  1
0.667302695832  0.015596379260  0.340895301969  1  1  1
0.667305934957  0.015602766522  0.674222107859  1  1  1
0.332395153774  0.015570990127  0.229897772838  1  1  1
0.332445232184  0.015582550920  0.563209290304  1  1  1
0.332469186516  0.015572633390  0.896549869801  1  1  1
0.665779571568  0.015567578385  0.229884670585  1  1  1
0.665779201513  0.015571215562  0.563213266064  1  1  1
0.665777301233  0.015562420270  0.896547502526  1  1  1
0.999166753061  0.015582614407  0.230038204988  1  1  1
0.999117648514  0.015579083905  0.563211080614  1  1  1
0.999139775908  0.015552591997  0.896497354432  1  1  1
0.001009957191  0.015491245752  0.118041491679  1  1  1
0.000867036277  0.015646640016  0.451307525698  1  1  1
0.000850035199  0.015648161514  0.784648749471  1  1  1
0.332617799293  0.015607816239  0.118021158916  1  1  1
0.334188944276  0.015654604864  0.451311477290  1  1  1
0.334201860831  0.015648583561  0.784645924385  1  1  1
0.667523297795  0.015628564640  0.117979967706  1  1  1
0.667524512121  0.015638883023  0.451313537833  1  1  1
0.667527163808  0.015637052742  0.784643821860  1  1  1
0.166043768607  0.015559672165  0.007604682884  1  1  1
0.166151096569  0.015422731834  0.340833013700  1  1  1
0.166093197941  0.015454240231  0.675690614326  1  1  1
0.499395252528  0.015418173438  0.009041871084  1  1  1
0.499393111822  0.015447465026  0.342374188992  1  1  1
0.499419895961  0.015440989643  0.675700218442  1  1  1
0.832631074987  0.015444687421  0.009018843952  1  1  1
0.832753820929  0.015440640207  0.342381307836  1  1  1
0.832755066836  0.015443328271  0.675699714012  1  1  1
0.165611504022  0.008484880970  0.224285322090  1  1  1
0.165256420673  0.012843550113  0.557596916963  1  1  1
0.165284363474  0.012756302232  0.890856216019  1  1  1
0.498591819476  0.012846369253  0.224271358432  1  1  1
0.498588065627  0.012807495599  0.557604286920  1  1  1
0.498593790829  0.012800723067  0.890948772988  1  1  1
0.831923324373  0.012810738778  0.224273465654  1  1  1
0.831929426814  0.012826697647  0.557616918603  1  1  1
0.831913193455  0.012811726329  0.890935496466  1  1  1
0.167480956041  0.015491110256  0.118054742920  1  1  1
0.163215162834  0.980727837288  0.436395657082  1  1  1
0.163224106768  0.980662994026  0.769765092794  1  1  1
0.496512380259  0.980594888304  0.103085764648  1  1  1
0.496549190306  0.980635792503  0.436427503435  1  1  1
0.496556091925  0.980638336441  0.769754742604  1  1  1
0.829888535330  0.980589400592  0.103078982246  1  1  1
0.829892516398  0.980628232362  0.436424900337  1  1  1
0.829889613131  0.980642385025  0.769756614500  1  1  1
0.083113208968  0.015760727609  0.007322793408  1  1  1
0.083604790239  0.015735850036  0.340807261371  1  1  1
0.083526185407  0.015797966951  0.674226671668  1  1  1
0.416856048773  0.015751811354  0.007552106016  1  1  1
0.416834697959  0.015792117446  0.340910384071  1  1  1
0.416859930809  0.015790305790  0.674231878154  1  1  1
0.750158468643  0.015777104553  0.007559514776  1  1  1
0.750193473594  0.015784260597  0.340909095667  1  1  1
0.750192897944  0.015785790447  0.674233659252  1  1  1
0.081698692997  0.015596267710  0.229911022971  1  1  1
0.081157683600  0.015887238083  0.561523298694  1  1  1
0.081073761029  0.015858300983  0.894809020048  1  1  1
0.414462543791  0.015867323618  0.228186321958  1  1  1
0.414480637049  0.015870614626  0.561528697320  1  1  1
0.414495768792  0.015854725639  0.894862027733  1  1  1
0.747808731724  0.015851050583  0.228193359346  1  1  1
0.747823825786  0.015866036071  0.561528958830  1  1  1
0.747812387475  0.015862891208  0.894861054549  1  1  1
0.083518085860  0.015533169600  0.119215423910  1  1  1
0.083477596986  0.012697855470  0.453402636052  1  1  1
0.083448321999  0.012617368931  0.786869164197  1  1  1
0.416505206671  0.012491971517  0.120225865540  1  1  1
0.416774869894  0.012599164396  0.453533242233  1  1  1
0.416786857300  0.012605106552  0.786858609216  1  1  1
0.750130513784  0.012567987123  0.120202625746  1  1  1
0.750123038396  0.012590917558  0.453538623351  1  1  1
0.750111170799  0.012597864406  0.786859134720  1  1  1
0.250064982884  0.015595735278  0.007538249824  1  1  1
0.249866522492  0.015736051314  0.340927551810  1  1  1
0.249895854747  0.015689468406  0.674375620467  1  1  1
0.583210088928  0.015655977305  0.007714977431  1  1  1
0.583215514230  0.015673367044  0.341058193688  1  1  1
0.583222799558  0.015672025779  0.674382986607  1  1  1
0.916323518007  0.015730040840  0.007592736149  1  1  1
0.916573466654  0.015658986582  0.341077777337  1  1  1
0.916553443928  0.015682512924  0.674382897140  1  1  1
0.249920222275  0.015691729258  0.228664384367  1  1  1
0.250324616675  0.016109327417  0.561878530869  1  1  1
0.250376416067  0.016139306182  0.895200546652  1  1  1
0.583648441476  0.016055553916  0.228559068654  1  1  1
0.583655333784  0.016079179081  0.561889001987  1  1  1
0.583656354711  0.016068214745  0.895219325555  1  1  1
0.916958364576  0.016052359065  0.228560547306  1  1  1
0.916992659828  0.016095681192  0.561892108426  1  1  1
0.916925527603  0.016007619787  0.895124887213  1  1  1
0.249994581344  0.015726215826  0.117935045072  1  1  1
0.252529095740  0.016196440075  0.450997052059  1  1  1
0.252528256714  0.016179373339  0.784352340928  1  1  1
0.585836630946  0.016120215977  0.117687091974  1  1  1
0.585848493996  0.016147818465  0.451023519710  1  1  1
0.585853316673  0.016142724464  0.784352408483  1  1  1
0.919301018636  0.016032232678  0.117703014089  1  1  1
0.919188517228  0.016136620083  0.451028907617  1  1  1
0.919178377637  0.016162418237  0.784355910637  1  1  1
0.041559349412  0.064172414657  0.054979548921  1  1  1
0.043152719776  0.064226774180  0.388621308014  1  1  1
0.043108521682  0.064212412273  0.721928026775  1  1  1
0.376395883429  0.064176915663  0.055305305192  1  1  1
0.376431183921  0.064229377857  0.388594844123  1  1  1
0.376441428753  0.064217132610  0.721927704201  1  1  1
0.709760549227  0.064208689472  0.055272584061  1  1  1
0.709773863894  0.064227558993  0.388613982848  1  1  1
0.709775426717  0.064215488077  0.721934470923  1  1  1
0.041490991423  0.064391964950  0.277605711261  1  1  1
0.041433725367  0.064245033274  0.609952982582  1  1  1
0.041321758657  0.064277516493  0.943488542869  1  1  1
0.374752736621  0.064233268383  0.276711341510  1  1  1
0.374769831667  0.064248862794  0.609965254236  1  1  1
0.374775978198  0.064241000856  0.943315665863  1  1  1
0.708112124555  0.064243615373  0.276712787834  1  1  1
0.708104950225  0.064241695163  0.609975479665  1  1  1
0.708103739706  0.064246672732  0.943325526431  1  1  1
0.041433777969  0.064266245521  0.165943464670  1  1  1
0.041434980137  0.064208281594  0.499104788636  1  1  1
0.041417565935  0.064241352741  0.832434266153  1  1  1
0.374645170738  0.064139682495  0.165753261762  1  1  1
0.374757537223  0.064228964599  0.499113955507  1  1  1
0.374755316267  0.064229525039  0.832452094274  1  1  1
0.708088998809  0.064226371318  0.165803421747  1  1  1
0.708089382246  0.064228448682  0.499127922148  1  1  1
0.708087095437  0.064227148897  0.832456151474  1  1  1
0.208150748399  0.064222259882  0.054936130081  1  1  1
0.205909532665  0.064411182305  0.388706087896  1  1  1
0.206018983135  0.064489097808  0.722164610503  1  1  1
0.539327862200  0.064468355665  0.055524170956  1  1  1
0.539347205304  0.064486111413  0.388852907668  1  1  1
0.539351913968  0.064480277861  0.722175360843  1  1  1
0.872593321681  0.064459873739  0.055503788701  1  1  1
0.872695607532  0.064493494670  0.388870972725  1  1  1
0.872675836748  0.064489855262  0.722173776457  1  1  1
0.207998508089  0.064345719992  0.277531299440  1  1  1
0.207880809749  0.064407559104  0.611087836111  1  1  1
0.207944609523  0.064447535706  0.944326738574  1  1  1
0.541207725505  0.064406990754  0.277797098820  1  1  1
0.541214721108  0.064404128415  0.611102830998  1  1  1
0.541211184839  0.064400874883  0.944453458020  1  1  1
0.874541375195  0.064419070973  0.277812515344  1  1  1
0.874546398304  0.064417010213  0.611107458568  1  1  1
0.874542483974  0.064395711268  0.944452837195  1  1  1
0.207880743267  0.064165892824  0.165717364299  1  1  1
0.208111697097  0.066522002114  0.499073837581  1  1  1
0.208118933319  0.066581324588  0.832417734816  1  1  1
0.541440735455  0.066502632454  0.165768012414  1  1  1
0.541447023074  0.066523190560  0.499092650534  1  1  1
0.541446287539  0.066519297633  0.832428198798  1  1  1
0.874783838622  0.066513491115  0.165767191366  1  1  1
0.874776058570  0.066512788316  0.499096600525  1  1  1
0.874767962046  0.066540744053  0.832416242017  1  1  1
0.000000000000  0.130439996734  0.000000000000  0  0  0
0.000000000000  0.130439996734  0.333333333334  0  0  0
0.000000000000  0.130439996734  0.666666666666  0  0  0
0.333333333334  0.130439996734  0.000000000000  0  0  0
0.333333333334  0.130439996734  0.333333333334  0  0  0
0.333333333334  0.130439996734  0.666666666666  0  0  0
0.666666666666  0.130439996734  0.000000000000  0  0  0
0.666666666666  0.130439996734  0.333333333334  0  0  0
0.666666666666  0.130439996734  0.666666666666  0  0  0
0.000000000000  0.130439996734  0.222223341380  0  0  0
0.000000000000  0.130439996734  0.555556674713  0  0  0
0.000000000000  0.130439996734  0.888890008047  0  0  0
0.333333333334  0.130439996734  0.222223341380  0  0  0
0.333333333334  0.130439996734  0.555556674713  0  0  0
0.333333333334  0.130439996734  0.888890008047  0  0  0
0.666666666666  0.130439996734  0.222223341380  0  0  0
0.666666666666  0.130439996734  0.555556674713  0  0  0
0.666666666666  0.130439996734  0.888890008047  0  0  0
0.000000000000  0.130439996734  0.111110001801  0  0  0
0.000000000000  0.130439996734  0.444443335133  0  0  0
0.000000000000  0.130439996734  0.777776668467  0  0  0
0.333333333334  0.130439996734  0.111110001801  0  0  0
0.333333333334  0.130439996734  0.444443335133  0  0  0
0.333333333334  0.130439996734  0.777776668467  0  0  0
0.666666666666  0.130439996734  0.111110001801  0  0  0
0.666666666666  0.130439996734  0.444443335133  0  0  0
0.666666666666  0.130439996734  0.777776668467  0  0  0
0.166666666675  0.130439996734  0.000000000000  0  0  0
0.166666666675  0.130439996734  0.333333333334  0  0  0
0.166666666675  0.130439996734  0.666666666666  0  0  0
0.500000000009  0.130439996734  0.000000000000  0  0  0
0.500000000009  0.130439996734  0.333333333334  0  0  0
0.500000000009  0.130439996734  0.666666666666  0  0  0
0.833333333341  0.130439996734  0.000000000000  0  0  0
0.833333333341  0.130439996734  0.333333333334  0  0  0
0.833333333341  0.130439996734  0.666666666666  0  0  0
0.166666666675  0.130439996734  0.222223341380  0  0  0
0.166666666675  0.130439996734  0.555556674713  0  0  0
0.166666666675  0.130439996734  0.888890008047  0  0  0
0.500000000009  0.130439996734  0.222223341380  0  0  0
0.500000000009  0.130439996734  0.555556674713  0  0  0
0.500000000009  0.130439996734  0.888890008047  0  0  0
0.833333333341  0.130439996734  0.222223341380  0  0  0
0.833333333341  0.130439996734  0.555556674713  0  0  0
0.833333333341  0.130439996734  0.888890008047  0  0  0
0.166666666675  0.130439996734  0.111110001801  0  0  0
0.166666666675  0.130439996734  0.444443335133  0  0  0
0.166666666675  0.130439996734  0.777776668467  0  0  0
0.500000000009  0.130439996734  0.111110001801  0  0  0
0.500000000009  0.130439996734  0.444443335133  0  0  0
0.500000000009  0.130439996734  0.777776668467  0  0  0
0.833333333341  0.130439996734  0.111110001801  0  0  0
0.833333333341  0.130439996734  0.444443335133  0  0  0
0.833333333341  0.130439996734  0.777776668467  0  0  0
0.083333333327  0.130439996734  0.000000000000  0  0  0
0.083333333327  0.130439996734  0.333333333334  0  0  0
0.083333333327  0.130439996734  0.666666666666  0  0  0
0.416666666661  0.130439996734  0.000000000000  0  0  0
0.416666666661  0.130439996734  0.333333333334  0  0  0
0.416666666661  0.130439996734  0.666666666666  0  0  0
0.749999999993  0.130439996734  0.000000000000  0  0  0
0.749999999993  0.130439996734  0.333333333334  0  0  0
0.749999999993  0.130439996734  0.666666666666  0  0  0
0.083333333327  0.130439996734  0.222223341380  0  0  0
0.083333333327  0.130439996734  0.555556674713  0  0  0
0.083333333327  0.130439996734  0.888890008047  0  0  0
0.416666666661  0.130439996734  0.222223341380  0  0  0
0.416666666661  0.130439996734  0.555556674713  0  0  0
0.416666666661  0.130439996734  0.888890008047  0  0  0
0.749999999993  0.130439996734  0.222223341380  0  0  0
0.749999999993  0.130439996734  0.555556674713  0  0  0
0.749999999993  0.130439996734  0.888890008047  0  0  0
0.083333333327  0.130439996734  0.111110001801  0  0  0
0.083333333327  0.130439996734  0.444443335133  0  0  0
0.083333333327  0.130439996734  0.777776668467  0  0  0
0.416666666661  0.130439996734  0.111110001801  0  0  0
0.416666666661  0.130439996734  0.444443335133  0  0  0
0.416666666661  0.130439996734  0.777776668467  0  0  0
0.749999999993  0.130439996734  0.111110001801  0  0  0
0.749999999993  0.130439996734  0.444443335133  0  0  0
0.749999999993  0.130439996734  0.777776668467  0  0  0
0.250000000089  0.130439996734  0.000000000000  0  0  0
0.250000000089  0.130439996734  0.333333333334  0  0  0
0.250000000089  0.130439996734  0.666666666666  0  0  0
0.583333333421  0.130439996734  0.000000000000  0  0  0
0.583333333421  0.130439996734  0.333333333334  0  0  0
0.583333333421  0.130439996734  0.666666666666  0  0  0
0.916666666755  0.130439996734  0.000000000000  0  0  0
0.916666666755  0.130439996734  0.333333333334  0  0  0
0.916666666755  0.130439996734  0.666666666666  0  0  0
0.250000000089  0.130439996734  0.222223341380  0  0  0
0.250000000089  0.130439996734  0.555556674713  0  0  0
0.250000000089  0.130439996734  0.888890008047  0  0  0
0.583333333421  0.130439996734  0.222223341380  0  0  0
0.583333333421  0.130439996734  0.555556674713  0  0  0
0.583333333421  0.130439996734  0.888890008047  0  0  0
0.916666666755  0.130439996734  0.222223341380  0  0  0
0.916666666755  0.130439996734  0.555556674713  0  0  0
0.916666666755  0.130439996734  0.888890008047  0  0  0
0.250000000089  0.130439996734  0.111110001801  0  0  0
0.250000000089  0.130439996734  0.444443335133  0  0  0
0.250000000089  0.130439996734  0.777776668467  0  0  0
0.583333333421  0.130439996734  0.111110001801  0  0  0
0.583333333421  0.130439996734  0.444443335133  0  0  0
0.583333333421  0.130439996734  0.777776668467  0  0  0
0.916666666755  0.130439996734  0.111110001801  0  0  0
0.916666666755  0.130439996734  0.444443335133  0  0  0
0.916666666755  0.130439996734  0.777776668467  0  0  0
0.041554615436  0.196549817303  0.054997414071  1  1  1
0.043153610033  0.196477233821  0.388622912113  1  1  1
0.043107266280  0.196487174825  0.721927783167  1  1  1
0.376384388125  0.196529657232  0.055309091060  1  1  1
0.376429802118  0.196470931446  0.388595782752  1  1  1
0.376439838873  0.196482505614  0.721928238349  1  1  1
0.709763646378  0.196496361222  0.055274704113  1  1  1
0.709771226778  0.196477354907  0.388614929839  1  1  1
0.709775002596  0.196486746479  0.721934937610  1  1  1
0.041588796816  0.196381802410  0.277522153482  1  1  1
0.041463598201  0.196456031672  0.610051632962  1  1  1
0.041370042601  0.196458004379  0.943368607380  1  1  1
0.374734203965  0.196486356229  0.276706503455  1  1  1
0.374796845702  0.196449777477  0.610056388141  1  1  1
0.374798251995  0.196455059214  0.943399574399  1  1  1
0.708110387460  0.196468842323  0.276702772119  1  1  1
0.708128982368  0.196455466637  0.610078854554  1  1  1
0.708124990864  0.196457928164  0.943415953292  1  1  1
0.041482803654  0.196486339358  0.166028600125  1  1  1
0.041434379137  0.196506366613  0.499117361272  1  1  1
0.041415790229  0.196483659080  0.832447721709  1  1  1
0.374670263322  0.196595905661  0.165776904432  1  1  1
0.374758258571  0.196482847253  0.499122541825  1  1  1
0.374760870325  0.196484699645  0.832464426461  1  1  1
0.708115763070  0.196512531576  0.165829749445  1  1  1
0.708092807675  0.196485425783  0.499138442748  1  1  1
0.708092417971  0.196486803110  0.832467441925  1  1  1
0.208146533705  0.196499094040  0.054947689553  1  1  1
0.205904517262  0.196295679889  0.388715939359  1  1  1
0.206004542014  0.196220610607  0.722171184821  1  1  1
0.539316441735  0.196236410424  0.055544834409  1  1  1
0.539333188124  0.196214354244  0.388866822770  1  1  1
0.539336402861  0.196227853664  0.722182810421  1  1  1
0.872584442304  0.196242302265  0.055528022229  1  1  1
0.872683542656  0.196209917203  0.388886807681  1  1  1
0.872663140630  0.196219606431  0.722181656526  1  1  1
0.207993075888  0.196954273859  0.276448452853  1  1  1
0.207843748736  0.196500958117  0.611017644045  1  1  1
0.207944834702  0.196606347694  0.943572012299  1  1  1
0.541208039462  0.196392264845  0.277871172560  1  1  1
0.541181347558  0.196498995228  0.611039208516  1  1  1
0.541186121592  0.196504108698  0.944383644743  1  1  1
0.874556755694  0.196390311080  0.277887707517  1  1  1
0.874514711250  0.196488782979  0.611042048725  1  1  1
0.874496770039  0.196508591999  0.944351685336  1  1  1
0.207795953410  0.196616020758  0.165804443140  1  1  1
0.208118899272  0.195635451045  0.498950972327  1  1  1
0.208123541613  0.195619500628  0.832281091691  1  1  1
0.541442768279  0.195706168706  0.165820828051  1  1  1
0.541458497223  0.195634881099  0.498975454422  1  1  1
0.541450505629  0.195642231728  0.832310832213  1  1  1
0.874798030091  0.195707088960  0.165821706394  1  1  1
0.874783715679  0.195635359937  0.498979559517  1  1  1
0.874778221707  0.195635489410  0.832297513461  1  1  1
0.999358562141  0.245077391540  0.007499540630  1  1  1
0.000725314647  0.245119272920  0.341040889132  1  1  1
0.000636347322  0.245037964893  0.674267059997  1  1  1
0.334040826390  0.245088714379  0.007547881086  1  1  1
0.333904906576  0.245020800516  0.340912163732  1  1  1
0.333978445116  0.245033462166  0.674262093507  1  1  1
0.667283179257  0.245065544522  0.007594906039  1  1  1
0.667312119959  0.245067310433  0.340952530300  1  1  1
0.667304657219  0.245049706490  0.674267002895  1  1  1
0.332406133368  0.245048659685  0.229937596719  1  1  1
0.332440120990  0.245058130879  0.563274078568  1  1  1
0.332458134769  0.245063261406  0.896619561689  1  1  1
0.665798660020  0.245049262908  0.229942114427  1  1  1
0.665776461835  0.245070646023  0.563279376801  1  1  1
0.665771501309  0.245080676570  0.896608552670  1  1  1
0.999437930083  0.245061331093  0.230108252118  1  1  1
0.999113161492  0.245061999762  0.563278386188  1  1  1
0.999094626681  0.245050006664  0.896612708290  1  1  1
0.001016336608  0.245169703026  0.118110645641  1  1  1
0.000872654255  0.245008456245  0.451349350255  1  1  1
0.000858101627  0.245007489996  0.784686190651  1  1  1
0.332617578949  0.245048942122  0.118064313717  1  1  1
0.334200173251  0.245001213350  0.451346760263  1  1  1
0.334209073639  0.245004458301  0.784682546329  1  1  1
0.667513858455  0.245016950154  0.118020959821  1  1  1
0.667531254733  0.245014930711  0.451351990809  1  1  1
0.667534573287  0.245017083039  0.784682679717  1  1  1
0.166100757145  0.245010393460  0.007542630686  1  1  1
0.166342491651  0.245118324438  0.340776063124  1  1  1
0.166050383246  0.245135613843  0.675601444682  1  1  1
0.499370088667  0.245185052903  0.008988974096  1  1  1
0.499403442936  0.245210592874  0.342420708296  1  1  1
0.499381943554  0.245154341294  0.675627680452  1  1  1
0.832611831129  0.245156431318  0.008963663736  1  1  1
0.832764365589  0.245212998645  0.342419634030  1  1  1
0.832718444781  0.245152305111  0.675631839908  1  1  1
0.165856735721  0.255066885044  0.224319426121  1  1  1
0.165385740897  0.248229341249  0.557807749452  1  1  1
0.165347916460  0.248275204565  0.891013594056  1  1  1
0.498721416493  0.248028392187  0.225829113151  1  1  1
0.498722752884  0.248230186679  0.557838241212  1  1  1
0.498726094254  0.248224286313  0.891229092395  1  1  1
0.832088033141  0.248076566665  0.225857135368  1  1  1
0.832060692681  0.248221186396  0.557866050125  1  1  1
0.832058871228  0.248231690316  0.891204043586  1  1  1
0.167478087180  0.245229378259  0.118125185819  1  1  1
0.163149053522  0.279990022434  0.436335257586  1  1  1
0.163158922466  0.280054855127  0.769704218328  1  1  1
0.496478626666  0.280200219739  0.103010941481  1  1  1
0.496485451994  0.280107428687  0.436360295112  1  1  1
0.496502921730  0.280123260212  0.769675141966  1  1  1
0.829865325139  0.280204570276  0.102997631467  1  1  1
0.829833605213  0.280115152713  0.436353063959  1  1  1
0.829826467376  0.280098262043  0.769687488707  1  1  1
0.083122245005  0.244880901938  0.007344295672  1  1  1
0.083630664887  0.244900830863  0.340816618529  1  1  1
0.083546288787  0.244802734625  0.674188923632  1  1  1
0.416873043372  0.244864232826  0.007542582914  1  1  1
0.416830003989  0.244860376372  0.340963219275  1  1  1
0.416878199240  0.244814505631  0.674202529228  1  1  1
0.750181504823  0.244834348786  0.007543311773  1  1  1
0.750193526071  0.244872381657  0.340963551407  1  1  1
0.750212051754  0.244819292011  0.674208217068  1  1  1
0.082897205160  0.245224779016  0.229998392003  1  1  1
0.081139919505  0.244834787705  0.561513676435  1  1  1
0.081102164250  0.244825920808  0.894838083043  1  1  1
0.414490101171  0.244822624515  0.228252678192  1  1  1
0.414459442084  0.244833070687  0.561511581895  1  1  1
0.414471212455  0.244845697721  0.894854619123  1  1  1
0.747852460441  0.244842766269  0.228253332277  1  1  1
0.747801297733  0.244840152395  0.561515643400  1  1  1
0.747793770717  0.244835861893  0.894847220471  1  1  1
0.083531917221  0.245135752814  0.119287002990  1  1  1
0.083473157101  0.248049749851  0.453381148412  1  1  1
0.083439814190  0.248098477782  0.786838460879  1  1  1
0.416488517852  0.248241392240  0.120149890243  1  1  1
0.416769104948  0.248126369106  0.453498916861  1  1  1
0.416768955727  0.248132135742  0.786808121366  1  1  1
0.750111138797  0.248185370083  0.120135490156  1  1  1
0.750111957251  0.248138262279  0.453498401956  1  1  1
0.750106192870  0.248131257915  0.786823877427  1  1  1
0.250050153879  0.244994925113  0.007497112196  1  1  1
0.249866513395  0.244817791147  0.340840877424  1  1  1
0.249889235307  0.244941868959  0.674405072935  1  1  1
0.583208737803  0.244976048001  0.007749252400  1  1  1
0.583220601594  0.244976838329  0.341138317884  1  1  1
0.583217932092  0.244959120819  0.674414325240  1  1  1
0.916296596303  0.244945941830  0.007701231813  1  1  1
0.916580650704  0.244981288649  0.341163430245  1  1  1
0.916548679141  0.244948898742  0.674417109172  1  1  1
0.249913605184  0.245211401515  0.228737135762  1  1  1
0.250256996274  0.244774944427  0.562085247904  1  1  1
0.250343959097  0.244802882416  0.895268124767  1  1  1
0.583554230907  0.244719693068  0.229890095875  1  1  1
0.583583983057  0.244792432826  0.562131873154  1  1  1
0.583578421376  0.244802265594  0.895436563177  1  1  1