ATOMIC_SPECIES
Ga  Ga_mass  Ga_pesudopotential
P  P_mass  P_pesudopotential
H  H_mass  H_pesudopotential
O  O_mass  O_pesudopotential

NUMERICAL_ORBITAL
Ga_orbital
P_orbital
H_orbital
O_orbital

LATTICE_CONSTANT
1.889727000000

LATTICE_VECTORS
46.817279999960  0.000000000000  0.000000000000
0.000000000000  30.388121999996  0.000000000000
0.000000000000  0.000000000000  49.657229999978

ATOMIC_POSITIONS
Direct

Ga
0
540
0.127164958482  0.064761106135  0.056719772265  1  1  1
0.127164958490  0.064761106132  0.390053105603  1  1  1
0.127164958480  0.064761106126  0.723386438928  1  1  1
0.460499109148  0.064755424636  0.056721640023  1  1  1
0.460499109137  0.064755424626  0.390054973361  1  1  1
0.460499109146  0.064755424616  0.723388306681  1  1  1
0.793828684145  0.064756398532  0.056720024962  1  1  1
0.793828684140  0.064756398523  0.390053358289  1  1  1
0.793828684139  0.064756398525  0.723386691627  1  1  1
0.125221286670  0.064546743595  0.277504606982  1  1  1
0.125221286662  0.064546743593  0.610837940319  1  1  1
0.125221286657  0.064546743584  0.944171273650  1  1  1
0.458555348033  0.064543397346  0.277504592501  1  1  1
0.458555348033  0.064543397343  0.610837925833  1  1  1
0.458555348036  0.064543397345  0.944171259168  1  1  1
0.791886898567  0.064542426385  0.277505198749  1  1  1
0.791886898573  0.064542426388  0.610838532081  1  1  1
0.791886898572  0.064542426391  0.944171865427  1  1  1
0.125183419993  0.063792501908  0.163715523275  1  1  1
0.125183419996  0.063792501909  0.497048856609  1  1  1
0.125183419986  0.063792501905  0.830382189937  1  1  1
0.458519832605  0.063787155387  0.163714656527  1  1  1
0.458519832605  0.063787155388  0.497047989859  1  1  1
0.458519832611  0.063787155390  0.830381323188  1  1  1
0.791849603480  0.063787710678  0.163713902393  1  1  1
0.791849603478  0.063787710657  0.497047235729  1  1  1
0.791849603478  0.063787710665  0.830380569064  1  1  1
0.291998388865  0.064255026815  0.055040182904  1  1  1
0.291998388865  0.064255026824  0.388373516229  1  1  1
0.291998388867  0.064255026813  0.721706849566  1  1  1
0.625332569246  0.064257999833  0.055041301634  1  1  1
0.625332569250  0.064257999838  0.388374634973  1  1  1
0.625332569248  0.064257999834  0.721707968299  1  1  1
0.958667275235  0.064254778617  0.055040561886  1  1  1
0.958667275230  0.064254778610  0.388373895218  1  1  1
0.958667275232  0.064254778615  0.721707228551  1  1  1
0.291807594757  0.064371900194  0.277502775705  1  1  1
0.291807594755  0.064371900181  0.610836109031  1  1  1
0.291807594761  0.064371900175  0.944169442371  1  1  1
0.625142188816  0.064374268854  0.277503492184  1  1  1
0.625142188811  0.064374268858  0.610836825512  1  1  1
0.625142188814  0.064374268859  0.944170158847  1  1  1
0.958478916058  0.064370662582  0.277502504065  1  1  1
0.958478916057  0.064370662587  0.610835837397  1  1  1
0.958478916056  0.064370662587  0.944169170737  1  1  1
0.292065573134  0.064211083794  0.165694826252  1  1  1
0.292065573129  0.064211083798  0.499028159583  1  1  1
0.292065573136  0.064211083784  0.832361492915  1  1  1
0.625399712467  0.064213896772  0.165694683934  1  1  1
0.625399712469  0.064213896764  0.499028017270  1  1  1
0.625399712472  0.064213896765  0.832361350602  1  1  1
0.958734722992  0.064210931002  0.165695073440  1  1  1
0.958734722993  0.064210931011  0.499028406772  1  1  1
0.958734722992  0.064210931006  0.832361740106  1  1  1
0.127187173568  0.195984757686  0.056747821427  1  1  1
0.127187173566  0.195984757679  0.390081154767  1  1  1
0.127187173565  0.195984757691  0.723414488098  1  1  1
0.460520943458  0.195989745015  0.056749862157  1  1  1
0.460520943465  0.195989745011  0.390083195488  1  1  1
0.460520943462  0.195989745019  0.723416528815  1  1  1
0.793851251140  0.195989229011  0.056748770168  1  1  1
0.793851251135  0.195989229007  0.390082103498  1  1  1
0.793851251135  0.195989229009  0.723415436836  1  1  1
0.125229863312  0.196371657016  0.276854216185  1  1  1
0.125229863303  0.196371657037  0.610187549484  1  1  1
0.125229863304  0.196371657037  0.943520882828  1  1  1
0.458564161016  0.196375681350  0.276850971384  1  1  1
0.458564161020  0.196375681355  0.610184304692  1  1  1
0.458564161024  0.196375681360  0.943517638050  1  1  1
0.791895708903  0.196376521058  0.276853287768  1  1  1
0.791895708906  0.196376521058  0.610186621103  1  1  1
0.791895708909  0.196376521055  0.943519954420  1  1  1
0.125210803334  0.197806537198  0.163642695125  1  1  1
0.125210803332  0.197806537128  0.496976028458  1  1  1
0.125210803325  0.197806537094  0.830309361795  1  1  1
0.458546333311  0.197769240526  0.163647453126  1  1  1
0.458546333309  0.197769240564  0.496980786457  1  1  1
0.458546333318  0.197769240575  0.830314119791  1  1  1
0.791876637907  0.197768834985  0.163645501608  1  1  1
0.791876637908  0.197768834958  0.496978834945  1  1  1
0.791876637912  0.197768835007  0.830312168275  1  1  1
0.291997223855  0.196457622160  0.055054425910  1  1  1
0.291997223857  0.196457622144  0.388387759236  1  1  1
0.291997223853  0.196457622170  0.721721092572  1  1  1
0.625331253784  0.196454361084  0.055055951243  1  1  1
0.625331253793  0.196454361095  0.388389284572  1  1  1
0.625331253789  0.196454361085  0.721722617904  1  1  1
0.958666375229  0.196457768965  0.055054734305  1  1  1
0.958666375228  0.196457768971  0.388388067638  1  1  1
0.958666375229  0.196457768962  0.721721400970  1  1  1
0.291816602632  0.196328957311  0.277535522299  1  1  1
0.291816602636  0.196328957318  0.610868855631  1  1  1
0.291816602642  0.196328957323  0.944202188962  1  1  1
0.625150912581  0.196326363743  0.277536312845  1  1  1
0.625150912573  0.196326363746  0.610869646169  1  1  1
0.625150912577  0.196326363740  0.944202979510  1  1  1
0.958487624021  0.196330156402  0.277535944451  1  1  1
0.958487624023  0.196330156398  0.610869277783  1  1  1
0.958487624019  0.196330156402  0.944202611118  1  1  1
0.292057820916  0.196513051771  0.165720332982  1  1  1
0.292057820911  0.196513051759  0.499053666310  1  1  1
0.292057820916  0.196513051779  0.832386999643  1  1  1
0.625391726013  0.196510227394  0.165720147414  1  1  1
0.625391726013  0.196510227387  0.499053480750  1  1  1
0.625391726011  0.196510227387  0.832386814083  1  1  1
0.958727068432  0.196513137397  0.165720552939  1  1  1
0.958727068437  0.196513137400  0.499053886274  1  1  1
0.958727068432  0.196513137401  0.832387219603  1  1  1
0.000644813967  0.015607567078  0.007559831491  1  1  1
0.000644813964  0.015607567081  0.340893164819  1  1  1
0.000644813968  0.015607567084  0.674226498153  1  1  1
0.333971145365  0.015608417796  0.007559742967  1  1  1
0.333971145362  0.015608417806  0.340893076301  1  1  1
0.333971145363  0.015608417804  0.674226409630  1  1  1
0.667306043146  0.015600854079  0.007558496412  1  1  1
0.667306043146  0.015600854074  0.340891829751  1  1  1
0.667306043140  0.015600854078  0.674225163083  1  1  1
0.332438563004  0.015564366606  0.229909365515  1  1  1
0.332438563008  0.015564366607  0.563242698837  1  1  1
0.332438563005  0.015564366587  0.896576032182  1  1  1
0.665773319297  0.015557768540  0.229906083052  1  1  1
0.665773319295  0.015557768530  0.563239416383  1  1  1
0.665773319294  0.015557768521  0.896572749719  1  1  1
0.999109948183  0.015564229165  0.229908019277  1  1  1
0.999109948183  0.015564229169  0.563241352602  1  1  1
0.999109948178  0.015564229165  0.896574685942  1  1  1
0.000853281925  0.015654546504  0.117972062210  1  1  1
0.000853281931  0.015654546509  0.451305395545  1  1  1
0.000853281925  0.015654546506  0.784638728877  1  1  1
0.334183000223  0.015654132931  0.117973350685  1  1  1
0.334183000221  0.015654132923  0.451306684020  1  1  1
0.334183000222  0.015654132914  0.784640017350  1  1  1
0.667517896806  0.015648322907  0.117970335271  1  1  1
0.667517896810  0.015648322909  0.451303668594  1  1  1
0.667517896809  0.015648322911  0.784637001932  1  1  1
0.166051347138  0.015429728459  0.009046572844  1  1  1
0.166051347145  0.015429728470  0.342379906186  1  1  1
0.166051347144  0.015429728466  0.675713239503  1  1  1
0.499388947636  0.015433610962  0.009049607218  1  1  1
0.499388947639  0.015433610947  0.342382940551  1  1  1
0.499388947634  0.015433610954  0.675716273880  1  1  1
0.832719291304  0.015436036320  0.009049823780  1  1  1
0.832719291299  0.015436036330  0.342383157109  1  1  1
0.832719291300  0.015436036326  0.675716490434  1  1  1
0.165269612889  0.012844851523  0.224293529644  1  1  1
0.165269612891  0.012844851523  0.557626862963  1  1  1
0.165269612882  0.012844851511  0.890960196302  1  1  1
0.498606541827  0.012845186979  0.224294220135  1  1  1
0.498606541828  0.012845186980  0.557627553466  1  1  1
0.498606541830  0.012845186983  0.890960886801  1  1  1
0.831936585007  0.012846925143  0.224294659855  1  1  1
0.831936585001  0.012846925130  0.557627993184  1  1  1
0.831936585002  0.012846925134  0.890961326528  1  1  1
0.163238281466  0.980650887679  0.103078047498  1  1  1
0.163238281469  0.980650887681  0.436411380826  1  1  1
0.163238281464  0.980650887673  0.769744714160  1  1  1
0.496569600246  0.980660243128  0.103077121625  1  1  1
0.496569600252  0.980660243128  0.436410454957  1  1  1
0.496569600254  0.980660243128  0.769743788294  1  1  1
0.829906284479  0.980661288571  0.103078239923  1  1  1
0.829906284482  0.980661288574  0.436411573247  1  1  1
0.829906284486  0.980661288579  0.769744906583  1  1  1
0.083522875969  0.015778069644  0.007564961980  1  1  1
0.083522875971  0.015778069645  0.340898295317  1  1  1
0.083522875973  0.015778069644  0.674231628642  1  1  1
0.416854841807  0.015783024282  0.007567492510  1  1  1
0.416854841804  0.015783024291  0.340900825849  1  1  1
0.416854841803  0.015783024289  0.674234159172  1  1  1
0.750186412902  0.015776634711  0.007565890046  1  1  1
0.750186412896  0.015776634701  0.340899223364  1  1  1
0.750186412904  0.015776634714  0.674232556706  1  1  1
0.081150404359  0.015863148559  0.228190911200  1  1  1
0.081150404357  0.015863148553  0.561524244525  1  1  1
0.081150404350  0.015863148538  0.894857577860  1  1  1
0.414482414092  0.015868465937  0.228191270841  1  1  1
0.414482414094  0.015868465935  0.561524604174  1  1  1
0.414482414092  0.015868465926  0.894857937509  1  1  1
0.747814212676  0.015861743397  0.228189468892  1  1  1
0.747814212672  0.015861743372  0.561522802222  1  1  1
0.747814212674  0.015861743374  0.894856135557  1  1  1
0.083431915736  0.012614820126  0.120168948676  1  1  1
0.083431915740  0.012614820131  0.453502282016  1  1  1
0.083431915739  0.012614820119  0.786835615342  1  1  1
0.416763783204  0.012619024272  0.120173466498  1  1  1
0.416763783196  0.012619024270  0.453506799839  1  1  1
0.416763783205  0.012619024253  0.786840133165  1  1  1
0.750096878716  0.012615197285  0.120169476674  1  1  1
0.750096878718  0.012615197308  0.453502810003  1  1  1
0.750096878719  0.012615197303  0.786836143336  1  1  1
0.249875287190  0.015665760110  0.007711931743  1  1  1
0.249875287191  0.015665760123  0.341045265081  1  1  1
0.249875287192  0.015665760107  0.674378598406  1  1  1
0.583211549931  0.015663548354  0.007711131036  1  1  1
0.583211549928  0.015663548359  0.341044464374  1  1  1
0.583211549932  0.015663548357  0.674377797696  1  1  1
0.916545379625  0.015670770891  0.007714713814  1  1  1
0.916545379628  0.015670770890  0.341048047154  1  1  1
0.916545379624  0.015670770891  0.674381380475  1  1  1
0.250294572095  0.016048002727  0.228582331920  1  1  1
0.250294572092  0.016048002715  0.561915665248  1  1  1
0.250294572094  0.016048002713  0.895248998582  1  1  1
0.583632699013  0.016045982878  0.228581140202  1  1  1
0.583632699016  0.016045982869  0.561914473533  1  1  1
0.583632699015  0.016045982872  0.895247806875  1  1  1
0.916966116132  0.016050918790  0.228583378429  1  1  1
0.916966116131  0.016050918785  0.561916711764  1  1  1
0.916966116127  0.016050918780  0.895250045096  1  1  1
0.252507983635  0.016165244397  0.117684364964  1  1  1
0.252507983633  0.016165244410  0.451017698295  1  1  1
0.252507983630  0.016165244399  0.784351031625  1  1  1
0.585844122663  0.016161862356  0.117684827862  1  1  1
0.585844122669  0.016161862346  0.451018161201  1  1  1
0.585844122671  0.016161862346  0.784351494533  1  1  1
0.919178883841  0.016169564953  0.117686297334  1  1  1
0.919178883844  0.016169564958  0.451019630674  1  1  1
0.919178883851  0.016169564947  0.784352964005  1  1  1
0.043111566159  0.064224760358  0.055272418916  1  1  1
0.043111566161  0.064224760365  0.388605752249  1  1  1
0.043111566159  0.064224760357  0.721939085582  1  1  1
0.376444250109  0.064220370485  0.055272822847  1  1  1
0.376444250098  0.064220370491  0.388606156175  1  1  1
0.376444250105  0.064220370478  0.721939489511  1  1  1
0.709777084472  0.064224772640  0.055272601933  1  1  1
0.709777084476  0.064224772632  0.388605935267  1  1  1
0.709777084470  0.064224772630  0.721939268596  1  1  1
0.041443023327  0.064260630989  0.276669863554  1  1  1
0.041443023318  0.064260630989  0.610003196882  1  1  1
0.041443023311  0.064260630988  0.943336530219  1  1  1
0.374774213336  0.064256105447  0.276669372915  1  1  1
0.374774213347  0.064256105439  0.610002706243  1  1  1
0.374774213351  0.064256105434  0.943336039581  1  1  1
0.708106925527  0.064260487392  0.276670152913  1  1  1
0.708106925525  0.064260487382  0.610003486243  1  1  1
0.708106925526  0.064260487380  0.943336819574  1  1  1
0.041422844556  0.064243081050  0.165802400210  1  1  1
0.041422844556  0.064243081051  0.499135733542  1  1  1
0.041422844546  0.064243081051  0.832469066874  1  1  1
0.374754399344  0.064238250076  0.165802778682  1  1  1
0.374754399341  0.064238250074  0.499136112013  1  1  1
0.374754399346  0.064238250073  0.832469445346  1  1  1
0.708086056452  0.064242521568  0.165802117022  1  1  1
0.708086056447  0.064242521588  0.499135450349  1  1  1
0.708086056449  0.064242521585  0.832468783682  1  1  1
0.206026654833  0.064486689379  0.055516533707  1  1  1
0.206026654835  0.064486689395  0.388849867036  1  1  1
0.206026654831  0.064486689377  0.722183200372  1  1  1
0.539364431849  0.064485074776  0.055515746509  1  1  1
0.539364431846  0.064485074778  0.388849079837  1  1  1
0.539364431851  0.064485074776  0.722182413168  1  1  1
0.872698167969  0.064481899208  0.055517118343  1  1  1
0.872698167966  0.064481899210  0.388850451678  1  1  1
0.872698167969  0.064481899214  0.722183785009  1  1  1
0.207870431276  0.064361192208  0.277757958780  1  1  1
0.207870431272  0.064361192198  0.611091292109  1  1  1
0.207870431274  0.064361192194  0.944424625448  1  1  1
0.541204154062  0.064359692631  0.277757813630  1  1  1
0.541204154067  0.064359692628  0.611091146968  1  1  1
0.541204154069  0.064359692631  0.944424480305  1  1  1
0.874538713509  0.064358589857  0.277758329791  1  1  1
0.874538713511  0.064358589846  0.611091663121  1  1  1
0.874538713509  0.064358589845  0.944424996457  1  1  1
0.208115844249  0.066663025125  0.165797467470  1  1  1
0.208115844255  0.066663025122  0.499130800803  1  1  1
0.208115844243  0.066663025112  0.832464134128  1  1  1
0.541451656771  0.066664457712  0.165796716249  1  1  1
0.541451656776  0.066664457709  0.499130049584  1  1  1
0.541451656783  0.066664457706  0.832463382913  1  1  1
0.874782484486  0.066660322396  0.165794773477  1  1  1
0.874782484491  0.066660322399  0.499128106809  1  1  1
0.874782484494  0.066660322395  0.832461440139  1  1  1
0.000000000000  0.130439996734  0.000000000000  0  0  0
0.000000000000  0.130439996734  0.333333333334  0  0  0
0.000000000000  0.130439996734  0.666666666666  0  0  0
0.333333333334  0.130439996734  0.000000000000  0  0  0
0.333333333334  0.130439996734  0.333333333334  0  0  0
0.333333333334  0.130439996734  0.666666666666  0  0  0
0.666666666666  0.130439996734  0.000000000000  0  0  0
0.666666666666  0.130439996734  0.333333333334  0  0  0
0.666666666666  0.130439996734  0.666666666666  0  0  0
0.000000000000  0.130439996734  0.222223341380  0  0  0
0.000000000000  0.130439996734  0.555556674713  0  0  0
0.000000000000  0.130439996734  0.888890008047  0  0  0
0.333333333334  0.130439996734  0.222223341380  0  0  0
0.333333333334  0.130439996734  0.555556674713  0  0  0
0.333333333334  0.130439996734  0.888890008047  0  0  0
0.666666666666  0.130439996734  0.222223341380  0  0  0
0.666666666666  0.130439996734  0.555556674713  0  0  0
0.666666666666  0.130439996734  0.888890008047  0  0  0
0.000000000000  0.130439996734  0.111110001801  0  0  0
0.000000000000  0.130439996734  0.444443335133  0  0  0
0.000000000000  0.130439996734  0.777776668467  0  0  0
0.333333333334  0.130439996734  0.111110001801  0  0  0
0.333333333334  0.130439996734  0.444443335133  0  0  0
0.333333333334  0.130439996734  0.777776668467  0  0  0
0.666666666666  0.130439996734  0.111110001801  0  0  0
0.666666666666  0.130439996734  0.444443335133  0  0  0
0.666666666666  0.130439996734  0.777776668467  0  0  0
0.166666666675  0.130439996734  0.000000000000  0  0  0
0.166666666675  0.130439996734  0.333333333334  0  0  0
0.166666666675  0.130439996734  0.666666666666  0  0  0
0.500000000009  0.130439996734  0.000000000000  0  0  0
0.500000000009  0.130439996734  0.333333333334  0  0  0
0.500000000009  0.130439996734  0.666666666666  0  0  0
0.833333333341  0.130439996734  0.000000000000  0  0  0
0.833333333341  0.130439996734  0.333333333334  0  0  0
0.833333333341  0.130439996734  0.666666666666  0  0  0
0.166666666675  0.130439996734  0.222223341380  0  0  0
0.166666666675  0.130439996734  0.555556674713  0  0  0
0.166666666675  0.130439996734  0.888890008047  0  0  0
0.500000000009  0.130439996734  0.222223341380  0  0  0
0.500000000009  0.130439996734  0.555556674713  0  0  0
0.500000000009  0.130439996734  0.888890008047  0  0  0
0.833333333341  0.130439996734  0.222223341380  0  0  0
0.833333333341  0.130439996734  0.555556674713  0  0  0
0.833333333341  0.130439996734  0.888890008047  0  0  0
0.166666666675  0.130439996734  0.111110001801  0  0  0
0.166666666675  0.130439996734  0.444443335133  0  0  0
0.166666666675  0.130439996734  0.777776668467  0  0  0
0.500000000009  0.130439996734  0.111110001801  0  0  0
0.500000000009  0.130439996734  0.444443335133  0  0  0
0.500000000009  0.130439996734  0.777776668467  0  0  0
0.833333333341  0.130439996734  0.111110001801  0  0  0
0.833333333341  0.130439996734  0.444443335133  0  0  0
0.833333333341  0.130439996734  0.777776668467  0  0  0
0.083333333327  0.130439996734  0.000000000000  0  0  0
0.083333333327  0.130439996734  0.333333333334  0  0  0
0.083333333327  0.130439996734  0.666666666666  0  0  0
0.416666666661  0.130439996734  0.000000000000  0  0  0
0.416666666661  0.130439996734  0.333333333334  0  0  0
0.416666666661  0.130439996734  0.666666666666  0  0  0
0.749999999993  0.130439996734  0.000000000000  0  0  0
0.749999999993  0.130439996734  0.333333333334  0  0  0
0.749999999993  0.130439996734  0.666666666666  0  0  0
0.083333333327  0.130439996734  0.222223341380  0  0  0
0.083333333327  0.130439996734  0.555556674713  0  0  0
0.083333333327  0.130439996734  0.888890008047  0  0  0
0.416666666661  0.130439996734  0.222223341380  0  0  0
0.416666666661  0.130439996734  0.555556674713  0  0  0
0.416666666661  0.130439996734  0.888890008047  0  0  0
0.749999999993  0.130439996734  0.222223341380  0  0  0
0.749999999993  0.130439996734  0.555556674713  0  0  0
0.749999999993  0.130439996734  0.888890008047  0  0  0
0.083333333327  0.130439996734  0.111110001801  0  0  0
0.083333333327  0.130439996734  0.444443335133  0  0  0
0.083333333327  0.130439996734  0.777776668467  0  0  0
0.416666666661  0.130439996734  0.111110001801  0  0  0
0.416666666661  0.130439996734  0.444443335133  0  0  0
0.416666666661  0.130439996734  0.777776668467  0  0  0
0.749999999993  0.130439996734  0.111110001801  0  0  0
0.749999999993  0.130439996734  0.444443335133  0  0  0
0.749999999993  0.130439996734  0.777776668467  0  0  0
0.250000000089  0.130439996734  0.000000000000  0  0  0
0.250000000089  0.130439996734  0.333333333334  0  0  0
0.250000000089  0.130439996734  0.666666666666  0  0  0
0.583333333421  0.130439996734  0.000000000000  0  0  0
0.583333333421  0.130439996734  0.333333333334  0  0  0
0.583333333421  0.130439996734  0.666666666666  0  0  0
0.916666666755  0.130439996734  0.000000000000  0  0  0
0.916666666755  0.130439996734  0.333333333334  0  0  0
0.916666666755  0.130439996734  0.666666666666  0  0  0
0.250000000089  0.130439996734  0.222223341380  0  0  0
0.250000000089  0.130439996734  0.555556674713  0  0  0
0.250000000089  0.130439996734  0.888890008047  0  0  0
0.583333333421  0.130439996734  0.222223341380  0  0  0
0.583333333421  0.130439996734  0.555556674713  0  0  0
0.583333333421  0.130439996734  0.888890008047  0  0  0
0.916666666755  0.130439996734  0.222223341380  0  0  0
0.916666666755  0.130439996734  0.555556674713  0  0  0
0.916666666755  0.130439996734  0.888890008047  0  0  0
0.250000000089  0.130439996734  0.111110001801  0  0  0
0.250000000089  0.130439996734  0.444443335133  0  0  0
0.250000000089  0.130439996734  0.777776668467  0  0  0
0.583333333421  0.130439996734  0.111110001801  0  0  0
0.583333333421  0.130439996734  0.444443335133  0  0  0
0.583333333421  0.130439996734  0.777776668467  0  0  0
0.916666666755  0.130439996734  0.111110001801  0  0  0
0.916666666755  0.130439996734  0.444443335133  0  0  0
0.916666666755  0.130439996734  0.777776668467  0  0  0
0.043114228602  0.196491167106  0.055270831765  1  1  1
0.043114228606  0.196491167102  0.388604165093  1  1  1
0.043114228600  0.196491167107  0.721937498427  1  1  1
0.376446398896  0.196495721923  0.055270929502  1  1  1
0.376446398886  0.196495721924  0.388604262833  1  1  1
0.376446398890  0.196495721929  0.721937596165  1  1  1
0.709779728827  0.196491262848  0.055271101830  1  1  1
0.709779728824  0.196491262843  0.388604435156  1  1  1
0.709779728823  0.196491262845  0.721937768494  1  1  1
0.041467951897  0.196447645333  0.276792836218  1  1  1
0.041467951891  0.196447645329  0.610126169551  1  1  1
0.041467951888  0.196447645323  0.943459502893  1  1  1
0.374799410083  0.196452276938  0.276791840357  1  1  1
0.374799410089  0.196452276942  0.610125173683  1  1  1
0.374799410094  0.196452276940  0.943458507035  1  1  1
0.708132010320  0.196447850771  0.276792469236  1  1  1
0.708132010318  0.196447850776  0.610125802568  1  1  1
0.708132010320  0.196447850774  0.943459135914  1  1  1
0.041437911289  0.196481278526  0.165819019949  1  1  1
0.041437911285  0.196481278524  0.499152353284  1  1  1
0.041437911277  0.196481278529  0.832485686612  1  1  1
0.374768679957  0.196485616032  0.165818981953  1  1  1
0.374768679948  0.196485616034  0.499152315287  1  1  1
0.374768679957  0.196485616038  0.832485648614  1  1  1
0.708101068230  0.196481507643  0.165818451839  1  1  1
0.708101068225  0.196481507634  0.499151785169  1  1  1
0.708101068224  0.196481507630  0.832485118504  1  1  1
0.206007033641  0.196230896885  0.055525868681  1  1  1
0.206007033639  0.196230896865  0.388859202007  1  1  1
0.206007033641  0.196230896892  0.722192535345  1  1  1
0.539344138517  0.196232716959  0.055524953590  1  1  1
0.539344138525  0.196232716962  0.388858286923  1  1  1
0.539344138521  0.196232716957  0.722191620255  1  1  1
0.872677891658  0.196236284740  0.055526240403  1  1  1
0.872677891658  0.196236284735  0.388859573742  1  1  1
0.872677891659  0.196236284738  0.722192907071  1  1  1
0.207843723599  0.196455801734  0.277750928775  1  1  1
0.207843723590  0.196455801752  0.611084262110  1  1  1
0.207843723590  0.196455801756  0.944417595443  1  1  1
0.541177150798  0.196457590143  0.277750384808  1  1  1
0.541177150802  0.196457590133  0.611083718142  1  1  1
0.541177150802  0.196457590136  0.944417051476  1  1  1
0.874511611695  0.196458103986  0.277751107654  1  1  1
0.874511611699  0.196458103981  0.611084440979  1  1  1
0.874511611697  0.196458103984  0.944417774317  1  1  1
0.208104129294  0.195638400234  0.165642199612  1  1  1
0.208104129293  0.195638400228  0.498975532940  1  1  1
0.208104129294  0.195638400249  0.832308866269  1  1  1
0.541441278887  0.195637128052  0.165640695402  1  1  1
0.541441278884  0.195637128048  0.498974028740  1  1  1
0.541441278889  0.195637128050  0.832307362073  1  1  1
0.874772225576  0.195639433947  0.165639105272  1  1  1
0.874772225583  0.195639433947  0.498972438608  1  1  1
0.874772225586  0.195639433944  0.832305771939  1  1  1
0.000649204840  0.245059803823  0.007609368998  1  1  1
0.000649204839  0.245059803826  0.340942702333  1  1  1
0.000649204841  0.245059803816  0.674276035662  1  1  1
0.333975829272  0.245059168933  0.007609087881  1  1  1
0.333975829265  0.245059168930  0.340942421211  1  1  1
0.333975829271  0.245059168934  0.674275754534  1  1  1
0.667310777618  0.245066029260  0.007607559062  1  1  1
0.667310777624  0.245066029271  0.340940892394  1  1  1
0.667310777619  0.245066029263  0.674274225722  1  1  1
0.332449190897  0.245080039605  0.229956423181  1  1  1
0.332449190893  0.245080039609  0.563289756509  1  1  1
0.332449190898  0.245080039623  0.896623089848  1  1  1
0.665783782614  0.245086014771  0.229952914952  1  1  1
0.665783782611  0.245086014765  0.563286248286  1  1  1
0.665783782610  0.245086014763  0.896619581621  1  1  1
0.999120576421  0.245079832838  0.229955459536  1  1  1
0.999120576415  0.245079832829  0.563288792862  1  1  1
0.999120576413  0.245079832833  0.896622126195  1  1  1
0.000872112890  0.245009599248  0.118012017852  1  1  1
0.000872112893  0.245009599256  0.451345351189  1  1  1
0.000872112888  0.245009599247  0.784678684523  1  1  1
0.334202211799  0.245010566118  0.118013592174  1  1  1
0.334202211795  0.245010566129  0.451346925507  1  1  1
0.334202211804  0.245010566130  0.784680258835  1  1  1
0.667537023141  0.245015883276  0.118010207562  1  1  1
0.667537023142  0.245015883289  0.451343540895  1  1  1
0.667537023141  0.245015883284  0.784676874225  1  1  1
0.166025369898  0.245176869696  0.008990057321  1  1  1
0.166025369902  0.245176869697  0.342323390654  1  1  1
0.166025369893  0.245176869694  0.675656723978  1  1  1
0.499363663147  0.245173285343  0.008993003417  1  1  1
0.499363663152  0.245173285357  0.342326336757  1  1  1
0.499363663150  0.245173285345  0.675659670076  1  1  1
0.832692969661  0.245171525894  0.008993219173  1  1  1
0.832692969655  0.245171525898  0.342326552511  1  1  1
0.832692969658  0.245171525893  0.675659885845  1  1  1
0.165348405308  0.248239051896  0.224508638846  1  1  1
0.165348405305  0.248239051920  0.557841972163  1  1  1
0.165348405297  0.248239051923  0.891175305495  1  1  1
0.498684569613  0.248236326074  0.224506190975  1  1  1
0.498684569618  0.248236326088  0.557839524297  1  1  1
0.498684569618  0.248236326087  0.891172857650  1  1  1
0.832015138388  0.248233932326  0.224506516888  1  1  1
0.832015138385  0.248233932313  0.557839850214  1  1  1
0.832015138391  0.248233932314  0.891173183552  1  1  1
0.163155559084  0.280085317239  0.103024905233  1  1  1
0.163155559080  0.280085317224  0.436358238564  1  1  1
0.163155559073  0.280085317250  0.769691571892  1  1  1
0.496485374047  0.280075562168  0.103026286037  1  1  1
0.496485374054  0.280075562163  0.436359619371  1  1  1
0.496485374054  0.280075562166  0.769692952706  1  1  1
0.829822093238  0.280077159496  0.103027324102  1  1  1
0.829822093244  0.280077159498  0.436360657438  1  1  1
0.829822093248  0.280077159489  0.769693990773  1  1  1
0.083552027843  0.244825244373  0.007540902691  1  1  1
0.083552027845  0.244825244381  0.340874236026  1  1  1
0.083552027841  0.244825244367  0.674207569350  1  1  1
0.416884285278  0.244819843835  0.007542937584  1  1  1
0.416884285274  0.244819843820  0.340876270920  1  1  1
0.416884285281  0.244819843827  0.674209604241  1  1  1
0.750215410025  0.244826158189  0.007541519326  1  1  1
0.750215410022  0.244826158185  0.340874852660  1  1  1
0.750215410023  0.244826158188  0.674208185995  1  1  1
0.081169578853  0.244893440350  0.228227906309  1  1  1
0.081169578851  0.244893440354  0.561561239631  1  1  1
0.081169578849  0.244893440359  0.894894572970  1  1  1
0.414502216425  0.244887667561  0.228227912114  1  1  1
0.414502216425  0.244887667567  0.561561245443  1  1  1
0.414502216430  0.244887667570  0.894894578780  1  1  1
0.747834028248  0.244894217333  0.228226067388  1  1  1
0.747834028247  0.244894217331  0.561559400720  1  1  1
0.747834028246  0.244894217333  0.894892734051  1  1  1
0.083429214748  0.248123006711  0.120154926245  1  1  1
0.083429214750  0.248123006729  0.453488259590  1  1  1
0.083429214746  0.248123006723  0.786821592924  1  1  1
0.416763169528  0.248114884002  0.120163353967  1  1  1
0.416763169527  0.248114884010  0.453496687296  1  1  1
0.416763169532  0.248114884015  0.786830020626  1  1  1
0.750095932810  0.248119545645  0.120158522560  1  1  1
0.750095932811  0.248119545646  0.453491855889  1  1  1
0.750095932808  0.248119545647  0.786825189225  1  1  1
0.249870223740  0.244969463136  0.007757368862  1  1  1
0.249870223740  0.244969463130  0.341090702198  1  1  1
0.249870223739  0.244969463134  0.674424035528  1  1  1
0.583206786980  0.244971517436  0.007756722580  1  1  1
0.583206786983  0.244971517438  0.341090055913  1  1  1
0.583206786981  0.244971517431  0.674423389247  1  1  1
0.916540355914  0.244964755797  0.007760043801  1  1  1
0.916540355912  0.244964755795  0.341093377136  1  1  1
0.916540355915  0.244964755797  0.674426710460  1  1  1
0.250272482036  0.244732981503  0.228717688156  1  1  1
0.250272482030  0.244732981515  0.562051021474  1  1  1
0.250272482034  0.244732981528  0.895384354813  1  1  1
0.583610204780  0.244735716133  0.228715680544  1  1  1
0.583610204783  0.244735716123  0.562049013866  1  1  1
0.583610204785  0.244735716131  0.895382347222  1  1  1