ATOMIC_SPECIES
Al 13 al.lda.lps

LATTICE_CONSTANT
7.50241114482

LATTICE_VECTORS
0.707106781187 0 0 #latvec1
0.353553390593 0.612372435696 0 #latvec2
0 0 12.124355653 #latvec3

ATOMIC_POSITIONS
Direct

Al #label
0 #magnetism
21 #number of atoms
0 0 0 0 0 1 0 0 0
0.333333333332 0.333333333332 0.0476190476184 0 0 1 0 0 0
0.666666666668 0.666666666668 0.0952380952385 0 0 1 0 0 0
0 0 0.142857142857 0 0 1 0 0 0
0.333333333332 0.333333333332 0.190476190475 0 0 1 0 0 0
0.666666666668 0.666666666668 0.238095238095 0 0 1 0 0 0
0 0 0.285714285714 0 0 1 0 0 0
0.333333333332 0.333333333332 0.333333333332 0 0 1 0 0 0
0.666666666668 0.666666666668 0.380952380952 0 0 1 0 0 0
0 0 0.428571428571 0 0 1 0 0 0
0.333333333332 0.333333333332 0.476190476191 0 0 1 0 0 0
0.666666666668 0.666666666668 0.523809523809 0 0 1 0 0 0
0 0 0.571428571429 0 0 1 0 0 0
0.333333333332 0.333333333332 0.619047619048 0 0 1 0 0 0
0.666666666668 0.666666666668 0.666666666668 0 0 1 0 0 0
0 0 0.714285714286 0 0 1 0 0 0
0.333333333332 0.333333333332 0.761904761905 0 0 1 0 0 0
0.666666666668 0.666666666668 0.809523809525 0 0 1 0 0 0
0 0 0.857142857143 0 0 1 0 0 0
0.333333333332 0.333333333332 0.904761904761 0 0 1 0 0 0
0.666666666668 0.666666666668 0.952380952382 0 0 1 0 0 0
