ATOMIC_SPECIES
Al  Al_mass  Al_pesudopotential
As  As_mass  As_pesudopotential
H  H_mass  H_pesudopotential
O  O_mass  O_pesudopotential

NUMERICAL_ORBITAL
Al_orbital
As_orbital
H_orbital
O_orbital

LATTICE_CONSTANT
1.889727000000

LATTICE_VECTORS
16.228394530871  0.000000000000  0.000000000000
0.000000000000  17.212811730802  0.000000000000
0.000000000000  0.000000000000  30.388122000006

ATOMIC_POSITIONS
Direct

Al
0
60
0.999999203123  0.028107444547  0.014808665688  0  0  0
0.000144262832  0.359373944642  0.015118404271  0  0  0
0.497863064474  0.671013066984  0.001293449735  0  0  0
0.250126189013  0.027177110400  0.014686292813  0  0  0
0.252114266525  0.362717982378  0.014101047033  0  0  0
0.746536775002  0.689002308171  0.013132267343  0  0  0
0.374649651506  0.163293665635  0.060809615045  0  0  0
0.377530018973  0.496886969284  0.061878246002  0  0  0
0.875686047756  0.829092125076  0.061112598590  0  0  0
0.125697461218  0.163224872624  0.060796490764  0  0  0
0.125072350660  0.496527829004  0.062394315682  0  0  0
0.624851260142  0.830494852267  0.061530043844  0  0  0
0.000000000000  0.000000000000  0.130439996605  0  0  0
0.000000000000  0.333330005400  0.130439996605  0  0  0
0.500000000025  0.666670024140  0.130439996605  0  0  0
0.249999999980  0.000000000000  0.130439996605  0  0  0
0.249999999980  0.333330005400  0.130439996605  0  0  0
0.750000000266  0.666670024140  0.130439996605  0  0  0
0.374659493448  0.163300663220  0.200037390710  0  0  0
0.377544519725  0.496927786595  0.198999904723  0  0  0
0.875679436355  0.829196265363  0.199728484652  0  0  0
0.125712811877  0.163245618960  0.200048952357  0  0  0
0.125164821322  0.496427998356  0.198484812577  0  0  0
0.624840326397  0.830392086936  0.199435720780  0  0  0
0.000033279845  0.028081988701  0.246092409226  0  0  0
0.000210502095  0.359341554372  0.245749177501  0  0  0
0.497896774356  0.671172850971  0.259780843846  0  0  0
0.250115338237  0.027130919455  0.246204139732  0  0  0
0.252128979207  0.362694600163  0.246798229573  0  0  0
0.746200621213  0.688940306130  0.247689813188  0  0  0
0.374939114100  0.093028242668  0.989318519257  0  0  0
0.377859811431  0.427714711909  0.989475770697  0  0  0
0.875757779871  0.750912784919  0.991155711868  0  0  0
0.125196552076  0.093103460519  0.989257115373  0  0  0
0.124017928588  0.427704171067  0.990011524744  0  0  0
0.621696276201  0.756528647330  0.991183500324  0  0  0
0.000238492275  0.247425453181  0.064376599622  0  0  0
0.999906527264  0.578563689549  0.067220961820  0  0  0
0.499852329200  0.914443919910  0.064047355634  0  0  0
0.249918341199  0.249506704948  0.063496899402  0  0  0
0.250491909153  0.579760181215  0.064752556553  0  0  0
0.750686107383  0.913360358808  0.063840699606  0  0  0
0.375000000004  0.083329997984  0.130439996605  0  0  0
0.375000000004  0.416669994571  0.130439996605  0  0  0
0.875000000095  0.749999999849  0.130439996605  0  0  0
0.125000000022  0.083329997984  0.130439996605  0  0  0
0.125000000022  0.416669994571  0.130439996605  0  0  0
0.624999999984  0.749999999849  0.130439996605  0  0  0
0.000246981834  0.247422653234  0.196491937598  0  0  0
0.999914606087  0.578287077335  0.193479143325  0  0  0
0.499847102914  0.914397151137  0.196843410114  0  0  0
0.249932004888  0.249516340980  0.197378679982  0  0  0
0.250508919151  0.579773752858  0.196116560078  0  0  0
0.750635006776  0.913364311466  0.197059644695  0  0  0
0.374931676378  0.093016664598  0.271534316937  0  0  0
0.377830808892  0.427746263681  0.271416889925  0  0  0
0.875622237767  0.750601925748  0.269495159462  0  0  0
0.125219099505  0.093138933986  0.271599292949  0  0  0
0.124043902463  0.427650094588  0.270907114036  0  0  0
0.621675696151  0.756675239623  0.269922955367  0  0  0

As
0
60
0.580951587294  0.680546112586  0.382662973133  0  0  0
0.678276583303  0.728730161806  0.344778518155  0  0  0
0.506682506411  0.637752961817  0.345428045680  0  0  0
0.436314016299  0.813149184184  0.334073651596  0  0  0
0.465985081602  0.560891058132  0.309633085382  0  0  0
0.580359833344  0.680551650799  0.878566299328  0  0  0
0.677640979959  0.728915419156  0.916488763690  0  0  0
0.506136359198  0.637901405053  0.915723836579  0  0  0
0.437693557467  0.813877324875  0.927900524306  0  0  0
0.465530464167  0.560832678537  0.951503476250  0  0  0
0.094705228165  0.679423513740  0.379198705120  0  0  0
0.009918270069  0.737677199920  0.366104603017  0  0  0
0.040595573500  0.810917075315  0.327355056208  0  0  0
0.227561333136  0.712788751520  0.386287656590  0  0  0
0.048954014891  0.546711305414  0.297893753945  0  0  0
0.188883940087  0.720816904841  0.922120108861  0  0  0
0.017509331060  0.638640627727  0.902620680119  0  0  0
0.945157696463  0.799857728114  0.931069643133  0  0  0
0.953089530935  0.548878841830  0.959938063167  0  0  0
0.679239344472  0.706376714589  0.374942666353  0  0  0
0.482655426455  0.817912482107  0.355429960100  0  0  0
0.678893221899  0.706104848249  0.886448465069  0  0  0
0.484410083354  0.818228034620  0.906772666089  0  0  0
0.186444494379  0.688046062553  0.367363752645  0  0  0
0.994791892798  0.804439307361  0.349292126364  0  0  0
0.188164250016  0.693598206852  0.893145500143  0  0  0
0.995324722280  0.805838986055  0.911410429925  0  0  0
0.995324722280  0.805838986055  0.911410429925  0  0  0
0.995324722280  0.805838986055  0.911410429925  0  0  0
0.995324722280  0.805838986055  0.911410429925  0  0  0
0.995324722280  0.805838986055  0.911410429925  0  0  0
0.995324722280  0.805838986055  0.911410429925  0  0  0
0.995324722280  0.805838986055  0.911410429925  0  0  0
0.995324722280  0.805838986055  0.911410429925  0  0  0
0.995324722280  0.805838986055  0.911410429925  0  0  0
0.995324722280  0.805838986055  0.911410429925  0  0  0
0.995324722280  0.805838986055  0.911410429925  0  0  0
0.995324722280  0.805838986055  0.911410429925  0  0  0
0.995324722280  0.805838986055  0.911410429925  0  0  0
0.995324722280  0.805838986055  0.911410429925  0  0  0
0.995324722280  0.805838986055  0.911410429925  0  0  0
0.995324722280  0.805838986055  0.911410429925  0  0  0
0.995324722280  0.805838986055  0.911410429925  0  0  0
0.995324722280  0.805838986055  0.911410429925  0  0  0
0.995324722280  0.805838986055  0.911410429925  0  0  0
0.995324722280  0.805838986055  0.911410429925  0  0  0
0.995324722280  0.805838986055  0.911410429925  0  0  0
0.995324722280  0.805838986055  0.911410429925  0  0  0
0.995324722280  0.805838986055  0.911410429925  0  0  0
0.995324722280  0.805838986055  0.911410429925  0  0  0
0.995324722280  0.805838986055  0.911410429925  0  0  0
0.995324722280  0.805838986055  0.911410429925  0  0  0
0.995324722280  0.805838986055  0.911410429925  0  0  0
0.995324722280  0.805838986055  0.911410429925  0  0  0
0.995324722280  0.805838986055  0.911410429925  0  0  0
0.995324722280  0.805838986055  0.911410429925  0  0  0
0.995324722280  0.805838986055  0.911410429925  0  0  0
0.995324722280  0.805838986055  0.911410429925  0  0  0
0.995324722280  0.805838986055  0.911410429925  0  0  0
0.995324722280  0.805838986055  0.911410429925  0  0  0

H
0
38
0.995324722280  0.805838986055  0.911410429925  0  0  0
0.995324722280  0.805838986055  0.911410429925  0  0  0
0.995324722280  0.805838986055  0.911410429925  0  0  0
0.995324722280  0.805838986055  0.911410429925  0  0  0
0.995324722280  0.805838986055  0.911410429925  0  0  0
0.995324722280  0.805838986055  0.911410429925  0  0  0
0.995324722280  0.805838986055  0.911410429925  0  0  0
0.995324722280  0.805838986055  0.911410429925  0  0  0
0.995324722280  0.805838986055  0.911410429925  0  0  0
0.995324722280  0.805838986055  0.911410429925  0  0  0
0.995324722280  0.805838986055  0.911410429925  0  0  0
0.995324722280  0.805838986055  0.911410429925  0  0  0
0.995324722280  0.805838986055  0.911410429925  0  0  0
0.995324722280  0.805838986055  0.911410429925  0  0  0
0.995324722280  0.805838986055  0.911410429925  0  0  0
0.995324722280  0.805838986055  0.911410429925  0  0  0
0.995324722280  0.805838986055  0.911410429925  0  0  0
0.995324722280  0.805838986055  0.911410429925  0  0  0
0.995324722280  0.805838986055  0.911410429925  0  0  0
0.995324722280  0.805838986055  0.911410429925  0  0  0
0.995324722280  0.805838986055  0.911410429925  0  0  0
0.995324722280  0.805838986055  0.911410429925  0  0  0
0.995324722280  0.805838986055  0.911410429925  0  0  0
0.995324722280  0.805838986055  0.911410429925  0  0  0
0.995324722280  0.805838986055  0.911410429925  0  0  0
0.995324722280  0.805838986055  0.911410429925  0  0  0
0.995324722280  0.805838986055  0.911410429925  0  0  0
0.995324722280  0.805838986055  0.911410429925  0  0  0
0.995324722280  0.805838986055  0.911410429925  0  0  0
0.995324722280  0.805838986055  0.911410429925  0  0  0
0.995324722280  0.805838986055  0.911410429925  0  0  0
0.995324722280  0.805838986055  0.911410429925  0  0  0
0.995324722280  0.805838986055  0.911410429925  0  0  0
0.995324722280  0.805838986055  0.911410429925  0  0  0
0.995324722280  0.805838986055  0.911410429925  0  0  0
0.995324722280  0.805838986055  0.911410429925  0  0  0
0.995324722280  0.805838986055  0.911410429925  0  0  0
0.995324722280  0.805838986055  0.911410429925  0  0  0

O
0
16
0.995324722280  0.805838986055  0.911410429925  0  0  0
0.995324722280  0.805838986055  0.911410429925  0  0  0
0.995324722280  0.805838986055  0.911410429925  0  0  0
0.995324722280  0.805838986055  0.911410429925  0  0  0
0.995324722280  0.805838986055  0.911410429925  0  0  0
0.995324722280  0.805838986055  0.911410429925  0  0  0
0.995324722280  0.805838986055  0.911410429925  0  0  0
0.995324722280  0.805838986055  0.911410429925  0  0  0
0.995324722280  0.805838986055  0.911410429925  0  0  0
0.995324722280  0.805838986055  0.911410429925  0  0  0
0.995324722280  0.805838986055  0.911410429925  0  0  0
0.995324722280  0.805838986055  0.911410429925  0  0  0
0.995324722280  0.805838986055  0.911410429925  0  0  0
0.995324722280  0.805838986055  0.911410429925  0  0  0
0.995324722280  0.805838986055  0.911410429925  0  0  0
0.995324722280  0.805838986055  0.911410429925  0  0  0
