ATOMIC_SPECIES
Al  Al_mass  Al_pesudopotential
As  As_mass  As_pesudopotential
H  H_mass  H_pesudopotential
O  O_mass  O_pesudopotential

NUMERICAL_ORBITAL
Al_orbital
As_orbital
H_orbital
O_orbital

LATTICE_CONSTANT
1.889727000000

LATTICE_VECTORS
16.228394530871  0.000000000000  0.000000000000
0.000000000000  17.212811730802  0.000000000000
0.000000000000  0.000000000000  30.388122000006

ATOMIC_POSITIONS
Direct

Al
0
60
0.000478808095  0.029776287513  0.015527096961  0  0  0
0.001176607592  0.359253970096  0.015302153271  0  0  0
0.494405891189  0.669596995607  0.007599528628  0  0  0
0.251296638847  0.029407346266  0.014827763817  0  0  0
0.251566588094  0.369053698949  0.012680021458  0  0  0
0.748239737552  0.690782374873  0.014682856925  0  0  0
0.379742755101  0.168291672743  0.061727252362  0  0  0
0.375396424469  0.490534732620  0.060635822199  0  0  0
0.875572678081  0.829555021526  0.061188890889  0  0  0
0.128156678713  0.165171060586  0.060892140053  0  0  0
0.124846203021  0.496845039932  0.062632075410  0  0  0
0.624072429881  0.830857373588  0.061572721537  0  0  0
0.000000000000  0.000000000000  0.130439996605  0  0  0
0.000000000000  0.333330005400  0.130439996605  0  0  0
0.500000000025  0.666670024140  0.130439996605  0  0  0
0.249999999980  0.000000000000  0.130439996605  0  0  0
0.249999999980  0.333330005400  0.130439996605  0  0  0
0.750000000266  0.666670024140  0.130439996605  0  0  0
0.379740646361  0.168240225868  0.199164970206  0  0  0
0.375335506176  0.490687922797  0.200219909497  0  0  0
0.875633757414  0.829569810663  0.199694290493  0  0  0
0.128150831121  0.165175026895  0.199978884874  0  0  0
0.124883793686  0.496973119028  0.198254698180  0  0  0
0.624142141805  0.830859759806  0.199290878168  0  0  0
0.000525885436  0.029843456179  0.245316806099  0  0  0
0.001227914782  0.359348449582  0.245596904544  0  0  0
0.494444719571  0.669851527876  0.253290225718  0  0  0
0.251325874397  0.029404802936  0.246037364925  0  0  0
0.251586600434  0.369042630270  0.248177712220  0  0  0
0.748274489142  0.690793091265  0.246264442743  0  0  0
0.375553413285  0.096321158031  0.989861502665  0  0  0
0.377524347292  0.427083494947  0.988223818408  0  0  0
0.875786591869  0.751796234785  0.990749619901  0  0  0
0.125658912669  0.094058917497  0.989573206658  0  0  0
0.121396355811  0.430327649607  0.989725648987  0  0  0
0.618600988917  0.750988397157  0.991284614780  0  0  0
0.000609495086  0.247388038354  0.064506160064  0  0  0
0.999775378563  0.579153292582  0.067363670219  0  0  0
0.499917814980  0.915090657077  0.063255724336  0  0  0
0.251368540701  0.253115021282  0.062178995689  0  0  0
0.251157071691  0.578816223697  0.065534946682  0  0  0
0.750221873868  0.913217928139  0.063227733422  0  0  0
0.375000000004  0.083329997984  0.130439996605  0  0  0
0.375000000004  0.416669994571  0.130439996605  0  0  0
0.875000000095  0.749999999849  0.130439996605  0  0  0
0.125000000022  0.083329997984  0.130439996605  0  0  0
0.125000000022  0.416669994571  0.130439996605  0  0  0
0.624999999984  0.749999999849  0.130439996605  0  0  0
0.000634257006  0.247441381989  0.196399268819  0  0  0
0.999880689442  0.579416230110  0.193644243181  0  0  0
0.499957847735  0.915065458284  0.197614632862  0  0  0
0.251387496955  0.253075468490  0.198686611446  0  0  0
0.251155192659  0.579128070637  0.195486842603  0  0  0
0.750279908437  0.913212697655  0.197656210118  0  0  0
0.375590989731  0.096274839769  0.271043114605  0  0  0
0.377560587815  0.427109706215  0.272593447580  0  0  0
0.875882285300  0.751754342959  0.270151303092  0  0  0
0.125707724550  0.094061331382  0.271309780233  0  0  0
0.121487991854  0.430394872078  0.271152072587  0  0  0
0.618733499724  0.751137465372  0.269626889417  0  0  0

As
0
60
0.572610517026  0.681768389147  0.380187683252  0  0  0
0.669960865312  0.712679941293  0.341139564081  0  0  0
0.491536528837  0.643540566542  0.357931503177  0  0  0
0.437048196774  0.806230121716  0.326576582301  0  0  0
0.437281130324  0.545918032009  0.298177989103  0  0  0
0.573513311155  0.679762872772  0.880351956971  0  0  0
0.670391696222  0.712615824283  0.919856923252  0  0  0
0.492853231079  0.640625517499  0.902491613818  0  0  0
0.436505017623  0.802846825664  0.933887263202  0  0  0
0.437380740507  0.545607730282  0.962608021245  0  0  0
0.096902716761  0.680269889281  0.379665978682  0  0  0
0.009410390970  0.733009109734  0.367226565629  0  0  0
0.037649914644  0.810048680611  0.330036124165  0  0  0
0.218499185779  0.736427796970  0.388295379827  0  0  0
0.050002344061  0.545755322253  0.297112270027  0  0  0
0.186165854335  0.718835408495  0.922042763883  0  0  0
0.018942196865  0.631973170835  0.905811383404  0  0  0
0.943704802182  0.796061687077  0.929267075586  0  0  0
0.953420662484  0.548147667336  0.960218447789  0  0  0
0.666233465790  0.687705263983  0.370842816382  0  0  0
0.485006748714  0.812047783408  0.348186150098  0  0  0
0.667234844382  0.687637229168  0.890142324933  0  0  0
0.484482321371  0.808704443072  0.912213248048  0  0  0
0.187971612571  0.699828336783  0.369836013551  0  0  0
0.992042993313  0.800833757149  0.351656269677  0  0  0
0.187426665682  0.693976174559  0.892292305847  0  0  0
0.993697255917  0.799943338245  0.909349367793  0  0  0
0.993697255917  0.799943338245  0.909349367793  0  0  0
0.993697255917  0.799943338245  0.909349367793  0  0  0
0.993697255917  0.799943338245  0.909349367793  0  0  0
0.993697255917  0.799943338245  0.909349367793  0  0  0
0.993697255917  0.799943338245  0.909349367793  0  0  0
0.993697255917  0.799943338245  0.909349367793  0  0  0
0.993697255917  0.799943338245  0.909349367793  0  0  0
0.993697255917  0.799943338245  0.909349367793  0  0  0
0.993697255917  0.799943338245  0.909349367793  0  0  0
0.993697255917  0.799943338245  0.909349367793  0  0  0
0.993697255917  0.799943338245  0.909349367793  0  0  0
0.993697255917  0.799943338245  0.909349367793  0  0  0
0.993697255917  0.799943338245  0.909349367793  0  0  0
0.993697255917  0.799943338245  0.909349367793  0  0  0
0.993697255917  0.799943338245  0.909349367793  0  0  0
0.993697255917  0.799943338245  0.909349367793  0  0  0
0.993697255917  0.799943338245  0.909349367793  0  0  0
0.993697255917  0.799943338245  0.909349367793  0  0  0
0.993697255917  0.799943338245  0.909349367793  0  0  0
0.993697255917  0.799943338245  0.909349367793  0  0  0
0.993697255917  0.799943338245  0.909349367793  0  0  0
0.993697255917  0.799943338245  0.909349367793  0  0  0
0.993697255917  0.799943338245  0.909349367793  0  0  0
0.993697255917  0.799943338245  0.909349367793  0  0  0
0.993697255917  0.799943338245  0.909349367793  0  0  0
0.993697255917  0.799943338245  0.909349367793  0  0  0
0.993697255917  0.799943338245  0.909349367793  0  0  0
0.993697255917  0.799943338245  0.909349367793  0  0  0
0.993697255917  0.799943338245  0.909349367793  0  0  0
0.993697255917  0.799943338245  0.909349367793  0  0  0
0.993697255917  0.799943338245  0.909349367793  0  0  0
0.993697255917  0.799943338245  0.909349367793  0  0  0
0.993697255917  0.799943338245  0.909349367793  0  0  0

H
0
38
0.993697255917  0.799943338245  0.909349367793  0  0  0
0.993697255917  0.799943338245  0.909349367793  0  0  0
0.993697255917  0.799943338245  0.909349367793  0  0  0
0.993697255917  0.799943338245  0.909349367793  0  0  0
0.993697255917  0.799943338245  0.909349367793  0  0  0
0.993697255917  0.799943338245  0.909349367793  0  0  0
0.993697255917  0.799943338245  0.909349367793  0  0  0
0.993697255917  0.799943338245  0.909349367793  0  0  0
0.993697255917  0.799943338245  0.909349367793  0  0  0
0.993697255917  0.799943338245  0.909349367793  0  0  0
0.993697255917  0.799943338245  0.909349367793  0  0  0
0.993697255917  0.799943338245  0.909349367793  0  0  0
0.993697255917  0.799943338245  0.909349367793  0  0  0
0.993697255917  0.799943338245  0.909349367793  0  0  0
0.993697255917  0.799943338245  0.909349367793  0  0  0
0.993697255917  0.799943338245  0.909349367793  0  0  0
0.993697255917  0.799943338245  0.909349367793  0  0  0
0.993697255917  0.799943338245  0.909349367793  0  0  0
0.993697255917  0.799943338245  0.909349367793  0  0  0
0.993697255917  0.799943338245  0.909349367793  0  0  0
0.993697255917  0.799943338245  0.909349367793  0  0  0
0.993697255917  0.799943338245  0.909349367793  0  0  0
0.993697255917  0.799943338245  0.909349367793  0  0  0
0.993697255917  0.799943338245  0.909349367793  0  0  0
0.993697255917  0.799943338245  0.909349367793  0  0  0
0.993697255917  0.799943338245  0.909349367793  0  0  0
0.993697255917  0.799943338245  0.909349367793  0  0  0
0.993697255917  0.799943338245  0.909349367793  0  0  0
0.993697255917  0.799943338245  0.909349367793  0  0  0
0.993697255917  0.799943338245  0.909349367793  0  0  0
0.993697255917  0.799943338245  0.909349367793  0  0  0
0.993697255917  0.799943338245  0.909349367793  0  0  0
0.993697255917  0.799943338245  0.909349367793  0  0  0
0.993697255917  0.799943338245  0.909349367793  0  0  0
0.993697255917  0.799943338245  0.909349367793  0  0  0
0.993697255917  0.799943338245  0.909349367793  0  0  0
0.993697255917  0.799943338245  0.909349367793  0  0  0
0.993697255917  0.799943338245  0.909349367793  0  0  0

O
0
16
0.993697255917  0.799943338245  0.909349367793  0  0  0
0.993697255917  0.799943338245  0.909349367793  0  0  0
0.993697255917  0.799943338245  0.909349367793  0  0  0
0.993697255917  0.799943338245  0.909349367793  0  0  0
0.993697255917  0.799943338245  0.909349367793  0  0  0
0.993697255917  0.799943338245  0.909349367793  0  0  0
0.993697255917  0.799943338245  0.909349367793  0  0  0
0.993697255917  0.799943338245  0.909349367793  0  0  0
0.993697255917  0.799943338245  0.909349367793  0  0  0
0.993697255917  0.799943338245  0.909349367793  0  0  0
0.993697255917  0.799943338245  0.909349367793  0  0  0
0.993697255917  0.799943338245  0.909349367793  0  0  0
0.993697255917  0.799943338245  0.909349367793  0  0  0
0.993697255917  0.799943338245  0.909349367793  0  0  0
0.993697255917  0.799943338245  0.909349367793  0  0  0
0.993697255917  0.799943338245  0.909349367793  0  0  0
