%BLOCK LATTICE_CART
2.648241056324    -4.586888060242    0.000000000000    
2.648241056324    4.586888060242    0.000000000000    
0.000000000000    0.000000000000    5.062667860000    
%END BLOCK LATTICE_CART
%BLOCK POSITIONS_FRAC
Li    0.666855160000    0.000000000000    0.000000000000
Li    0.333144840000    0.333144840000    0.000000000000
Li    0.000000000000    0.666855160000    0.000000000000
Li    0.000000000000    0.000000000000    0.500000000000
Mg    0.666666666667    0.333333333333    0.500000000000
Mg    0.333333333333    0.666666666667    0.500000000000
%END BLOCK POSITIONS_FRAC
%BLOCK SPECIES_POT
Li li.gga.recpot
Mg mg.gga.recpot
%END BLOCK SPECIES_POT
