%BLOCK LATTICE_CART
3.139467140000    0.000000000000    0.000000000000    
0.000000000000    5.455246100000    0.000000000000    
0.000000000000    0.000000000000    10.113728960000    
%END BLOCK LATTICE_CART
%BLOCK POSITIONS_FRAC
Li    0.500000000000    0.168372010000    0.000000000000
Li    0.000000000000    0.668372010000    0.500000000000
Mg    0.000000000000    0.664554760000    0.000000000000
Mg    0.000000000000    0.000203620000    0.249098950000
Mg    0.500000000000    0.500203620000    0.250901050000
Mg    0.500000000000    0.164554760000    0.500000000000
Mg    0.500000000000    0.500203620000    0.749098950000
Mg    0.000000000000    0.000203620000    0.750901050000
%END BLOCK POSITIONS_FRAC
%BLOCK SPECIES_POT
Li li.gga.recpot
Mg mg.gga.recpot
%END BLOCK SPECIES_POT
