ATOMIC_SPECIES
Si 14 si.lda.lps blps

LATTICE_CONSTANT
0.0  // add lattice constant

LATTICE_VECTORS
1.000000000000    0.000000000000    0.000000000000    
0.000000000000    1.000000000000    0.000000000000    
0.000000000000    0.000000000000    1.827600000000    

ATOMIC_POSITIONS
Direct

Si
0.0
4
    0.000000000000    0.000000000000    0.000000000000 1 1 1
    0.500000000000    0.500000000000    0.500000000000 1 1 1
    0.000000000000    0.000000000000    0.191690000000 1 1 1
    0.500000000000    0.500000000000    0.691690000000 1 1 1
