INPUT_PARAMETERS
#Parameters (1.General)
suffix			blpstest
calculation     cell-relax
ntype			2
nbands			8
symmetry		1
#pseudo_dir      /home/dell/2_software/qe-6.6/pseudo/sg15_oncv_upf_2020-02-06
pseudo_dir 		.

#Parameters (2.Iteration)
ecutwfc			60
#dr2				1e-6
scf_nmax		100
relax_nmax		2

#Parameters (3.Basis)
basis_type		pw

#Parameters (4.Smearing)
smearing_method		gauss
smearing_sigma			0.0074
#out_stru	1

#Parameters (5.Mixing)
mixing_type		pulay
mixing_beta		0.7
