ATOMIC_SPECIES
Si 14 si.gga.psp blps

LATTICE_CONSTANT
9.15089642718838  // add lattice constant

LATTICE_VECTORS
-0.500000000000    0.500000000000    0.272770087495    
0.500000000000    -0.500000000000    0.272770087495    
0.500000000000    0.500000000000    -0.272770087495    

ATOMIC_POSITIONS
Direct

Si
0.0
2
    0.000000000000    0.000000000000    0.000000000000 1 1 1
    0.750000000000    0.250000000000    0.500000000000 1 1 1
