INPUT_PARAMETERS
#Parameters (1.General)
suffix			oftest
calculation     scf
symmetry		1
#symmetry_prec   2e-4
pseudo_dir      /home/mhchen_pkuhpc/mhchen_coe/lustre2/1_sunliang/2_software/PROFESS3.0/BLPSLibrary-master/GGA/real
# pseudo_dir      /home/xianyuer/data/1_sunliang/2_software/PP_ORB/BLPSLibrary-master/GGA/real
pseudo_rcut     16
nbands          21
out_stru        1
out_chg         1

#Parameters (2.Iteration)
ecutwfc			60
scf_nmax        100

#Parameters (3.Basis)
basis_type		pw
kspacing        0.05

#Parameters (4.Smearing)
smearing_method	gauss
smearing_sigma	0.0074
of_full_pw      1
of_full_pw_dim  1

#Parameters (5.Mixing)
mixing_type		pulay
mixing_beta		0.7

dft_functional  XC_GGA_X_PBE+XC_GGA_C_PBE
