ATOMIC_SPECIES
Mg 24.305 mg.gga.psp blps
Al 26.981 al.gga.psp blps

LATTICE_CONSTANT
1.8897259885789233  // add lattice constant

LATTICE_VECTORS
2.924363053122    -5.065145387784    0.000000000000    
2.924363053122    5.065145387784    0.000000000000    
0.000000000000    0.000000000000    4.666289450000    

ATOMIC_POSITIONS
Direct

Mg
0.0
2
    0.333333333333    0.666666666667    0.750000000000 1 1 1
    0.666666666667    0.333333333333    0.250000000000 1 1 1
Al
0.0
6
    0.322379830000    0.161189915000    0.750000000000 1 1 1
    0.838810085000    0.161189915000    0.750000000000 1 1 1
    0.838810085000    0.677620170000    0.750000000000 1 1 1
    0.161189915000    0.838810085000    0.250000000000 1 1 1
    0.161189915000    0.322379830000    0.250000000000 1 1 1
    0.677620170000    0.838810085000    0.250000000000 1 1 1
