ATOMIC_SPECIES
Al  26.9810 al.gga.psp blps
As  74.9220 as.gga.psp blps

LATTICE_CONSTANT
1.8897259886

LATTICE_VECTORS
        2.0189584520       -3.4969386172       -0.0000000000
        2.0189584520        3.4969386172       -0.0000000000
       -0.0000000000        0.0000000000        6.6398423589

ATOMIC_POSITIONS
Direct

Al #label
0.0000   #magnetism
2 #number of atoms
        0.3333333333        0.6666666667        0.0007332102 m 1 1 1
        0.6666666667        0.3333333333        0.5007332102 m 1 1 1

As #label
0.0000   #magnetism
2 #number of atoms
        0.3333333333        0.6666666667        0.3752667898 m 1 1 1
        0.6666666667        0.3333333333        0.8752667898 m 1 1 1
