ATOMIC_SPECIES
Al  26.9810 al.gga.psp blps
As  74.9220 as.gga.psp blps

LATTICE_CONSTANT
1.8897259886

LATTICE_VECTORS
        2.0281781492       -3.5129076013       -0.0000000000
        2.0281781492        3.5129076013       -0.0000000000
        0.0000000000        0.0000000000        6.6720450475

ATOMIC_POSITIONS
Direct

Al #label
0.0000   #magnetism
2 #number of atoms
        0.3333333333        0.6666666667        0.0007587184 m 1 1 1
        0.6666666667        0.3333333333        0.5007587184 m 1 1 1

As #label
0.0000   #magnetism
2 #number of atoms
        0.3333333333        0.6666666667        0.3752412816 m 1 1 1
        0.6666666667        0.3333333333        0.8752412816 m 1 1 1
