%BLOCK LATTICE_CART
2.729512757547    0.000000000000    0.000000000000    
-1.364756378774    2.363827387990    0.000000000000    
0.000000000000    0.000000000000    4.617583301697    
%END BLOCK LATTICE_CART
%BLOCK POSITIONS_FRAC
Al    0.000000000000    0.000000000000    0.000000000000
Al    0.666666666667    0.333333333333    0.500000000000
%END BLOCK POSITIONS_FRAC
%BLOCK SPECIES_POT
Al al.lda.recpot
%END BLOCK SPECIES_POT
