ATOMIC_SPECIES
Ga 67 /home/mhchen_pkuhpc/mhchen_cls/lustre2/5_liurenxi/03a01_abacus-lcao-scan/pp/SG15_ONCV_v1.0_upf/Ga_ONCV_PBE-1.0.upf
N 14 /home/mhchen_pkuhpc/mhchen_cls/lustre2/5_liurenxi/03a01_abacus-lcao-scan/pp/SG15_ONCV_v1.0_upf/N_ONCV_PBE-1.0.upf

LATTICE_CONSTANT
9.0328432669

LATTICE_VECTORS
0.5 0.5 0.000000
0.5 0.000000 0.5
0.000000 0.5 0.5

NUMERICAL_ORBITAL
/home/mhchen_pkuhpc/mhchen_cls/lustre2/5_liurenxi/03a01_abacus-lcao-scan/orb/Orb_DZP_E100_Full/Ga/Ga_gga_9au_100Ry_2s2p2d1f.orb
/home/mhchen_pkuhpc/mhchen_cls/lustre2/5_liurenxi/03a01_abacus-lcao-scan/orb/Orb_DZP_E100_Full/N/N_gga_7au_100Ry_2s2p1d.orb
/home/mhchen_pkuhpc/mhchen_cls/lustre2/5_liurenxi/03a01_abacus-lcao-scan/orb/Orb_TZDP_E100_Full/Ga/Ga_gga_9au_100Ry_3s3p3d2f.orb
/home/mhchen_pkuhpc/mhchen_cls/lustre2/5_liurenxi/03a01_abacus-lcao-scan/orb/Orb_TZDP_E100_Full/N/N_gga_7au_100Ry_3s3p2d.orb


ATOMIC_POSITIONS
Cartesian    # Cartesian(Unit is LATTICE_CONSTANT)
Ga
0.0
1
0.000000 0.000000 0.000000 m 0 0 0
N
0.0
1
0.250000 0.250000 0.250000 m 0 0 0