ATOMIC_SPECIES
Al 26.981539 Al_ONCV_PBE-1.2.upf

LATTICE_CONSTANT
7.4984327225523  // add lattice constant

LATTICE_VECTORS
0.707106781187    0.000000000000    0.000000000000    
0.353553390593    0.612372435696    0.000000000000    
0.000000000000    0.000000000000    11.547005383792515 

ATOMIC_POSITIONS
Direct

Al
0.0
20
    1.5151265342E-30  1.5151265342E-30  1.3359677408E-04 1 1 1
    3.3333333330E-01  3.3333333330E-01  4.9758717830E-02 1 1 1
    6.6666666670E-01  6.6666666670E-01  9.9794248116E-02 1 1 1
    1.4481634770E-30  1.4489691120E-30  1.4962633247E-01 1 1 1
    3.3333333330E-01  3.3333333330E-01  1.9955655966E-01 1 1 1
    7.6666666670E-01  7.6666666670E-01  2.5049594262E-01 1 1 1
    1.0000000000E-01  1.0000000000E-01  3.0034148066E-01 1 1 1
    4.3333333330E-01  4.3333333330E-01  3.5032189175E-01 1 1 1
    7.6666666670E-01  7.6666666670E-01  3.9993137238E-01 1 1 1
    1.0000000000E-01  1.0000000000E-01  4.5000000000E-01 1 1 1
    7.6666666670E-01  7.6666666670E-01  5.0006862762E-01 1 1 1
    4.3333333330E-01  4.3333333330E-01  5.4967810825E-01 1 1 1
    1.0000000000E-01  1.0000000000E-01  5.9965851934E-01 1 1 1
    7.6666666670E-01  7.6666666670E-01  6.4950405738E-01 1 1 1
    3.3333333330E-01  3.3333333330E-01  7.0044344034E-01 1 1 1
    1.4490375529E-30  1.4522600931E-30  7.5037366753E-01 1 1 1
    6.6666666670E-01  6.6666666670E-01  8.0020575188E-01 1 1 1
    3.3333333330E-01  3.3333333330E-01  8.5024128217E-01 1 1 1
    1.5127489460E-30  1.5127489460E-30  8.9986640323E-01 1 1 1
    6.6666666670E-01  6.6666666670E-01  9.5000000000E-01 1 1 1
