%BLOCK LATTICE_CART
  -1.586663256561317   1.586194669299802   1.586194623074532
   1.586194520527191  -1.586663221171042   1.586194587921378
   1.586194510374871   1.586194623994329  -1.586663211070235
%END BLOCK LATTICE_CART
%BLOCK POSITIONS_FRAC
    Al   0.000000000000000   0.000000000000000   0.000000000000000
%END BLOCK POSITIONS_FRAC
%BLOCK SPECIES_POT
    Al al.lda.recpot                                                                          
%END BLOCK SPECIES_POT
