%BLOCK LATTICE_CART
2.494266121332    -4.320195649745    0.000000000000    
2.494266121332    4.320195649745    0.000000000000    
0.000000000000    0.000000000000    5.501044000000    
%END BLOCK LATTICE_CART
%BLOCK POSITIONS_FRAC
Mg    0.666666666667    0.333333333333    0.750000000000
Mg    0.333333333333    0.666666666667    0.250000000000
Al    0.666666666667    0.333333333333    0.250000000000
Al    0.333333333333    0.666666666667    0.750000000000
%END BLOCK POSITIONS_FRAC
%BLOCK SPECIES_POT
Mg mg.gga.recpot
Al al.gga.recpot
%END BLOCK SPECIES_POT
