%BLOCK LATTICE_CART
   2.805799707700000   0.000000000000000   0.000000000000000
   1.402899853850000   2.429893824799152   0.000000000000000
   0.000000000000003   0.000000000000002  46.794963415107752
%END BLOCK LATTICE_CART
%BLOCK POSITIONS_FRAC
    Al   0.000000000000000   0.000000000000000   0.999893002689564
    Al   0.333333333300000   0.333333333300000   0.049754949488878
    Al   0.666666666700000   0.666666666700000   0.099614845793140
    Al   0.000000000000000   0.000000000000000   0.149476365998166
    Al   0.333333333300000   0.333333333300000   0.199382528805724
    Al   0.833333333300000   0.833333333300000   0.250576763707715
    Al   0.166666666700000   0.166666666700000   0.300470952796780
    Al   0.500000000000000   0.500000000000000   0.350309659570364
    Al   0.833333333300000   0.833333333300000   0.400141192094505
    Al   0.166666666700000   0.166666666700000   0.450000177857597
    Al   0.833333333300000   0.833333333300000   0.499859214954016
    Al   0.500000000000000   0.500000000000000   0.549690763014544
    Al   0.166666666700000   0.166666666700000   0.599529293282849
    Al   0.833333333300000   0.833333333300000   0.649423217926086
    Al   0.333333333300000   0.333333333300000   0.700617302848135
    Al   0.000000000000000   0.000000000000000   0.750523371541278
    Al   0.666666666700000   0.666666666700000   0.800384924454783
    Al   0.333333333300000   0.333333333300000   0.850244797837681
    Al   0.000000000000000   0.000000000000000   0.900106601601893
    Al   0.666666666700000   0.666666666700000   0.949999756586561
%END BLOCK POSITIONS_FRAC
%BLOCK SPECIES_POT
    Al al.lda.recpot                                                                          
%END BLOCK SPECIES_POT
%BLOCK ION_OPTIMIZATION
           0           0           1
           0           0           1
           0           0           1
           0           0           1
           0           0           1
           0           0           1
           0           0           1
           0           0           1
           0           0           1
           0           0           1
           0           0           1
           0           0           1
           0           0           1
           0           0           1
           0           0           1
           0           0           1
           0           0           1
           0           0           1
           0           0           1
           0           0           1
%END BLOCK ION_OPTIMIZATION
