ATOMIC_SPECIES
Al 13 Al.pz-vbc.UPF

LATTICE_CONSTANT
7.427190052911743  // add lattice constant

LATTICE_VECTORS
0.000000000000    0.500000000000    0.500000000000    
0.500000000000    0.000000000000    0.500000000000    
0.500000000000    0.500000000000    0.000000000000    

ATOMIC_POSITIONS
Direct

Al
0.0
1
    0.000000000000    0.000000000000    0.000000000000 1 1 1
