%BLOCK LATTICE_CART
   0.001301379450144   2.802298672212082   2.802509663106287
   2.802496809111921   0.001469455684759   2.802540492132514
   2.802456187219481   2.802288879212138   0.001257479595976
%END BLOCK LATTICE_CART
%BLOCK POSITIONS_FRAC
    Li   0.000000000000000   0.000000000000000   0.000000000000000
    Li   0.250000000000000   0.250000000000000   0.250000000000000
%END BLOCK POSITIONS_FRAC
%BLOCK SPECIES_POT
    Li li.lda.recpot                                                                          
%END BLOCK SPECIES_POT
