%BLOCK LATTICE_CART
1.931169988955    -3.344884538923    0.000000000000    
1.931169988955    3.344884538923    0.000000000000    
0.000000000000    0.000000000000    6.366925846226    
%END BLOCK LATTICE_CART
%BLOCK POSITIONS_FRAC
Ga    0.666666666667    0.333333333333    0.500054490000
Ga    0.333333333333    0.666666666667    0.000054490000
P    0.666666666667    0.333333333333    0.873945510000
P    0.333333333333    0.666666666667    0.373945510000
%END BLOCK POSITIONS_FRAC
%BLOCK SPECIES_POT
Ga ga.gga.recpot
P p.gga.recpot
%END BLOCK SPECIES_POT
