ATOMIC_SPECIES
Mg 12 mg.lda.lps
Al 13 al.lda.lps

LATTICE_CONSTANT
7.763372306279933  // add lattice constant

LATTICE_VECTORS
1.000000000000    0.000000000000    0.000000000000    
0.000000000000    1.000000000000    0.000000000000    
0.000000000000    0.000000000000    1.000000000000    

ATOMIC_POSITIONS
Direct

Mg
0.0
1
    0.000000000000    0.000000000000    0.000000000000 1 1 1
Al
0.0
3
    0.000000000000    0.500000000000    0.500000000000 1 1 1
    0.500000000000    0.500000000000    0.000000000000 1 1 1
    0.500000000000    0.000000000000    0.500000000000 1 1 1
