%BLOCK LATTICE_CART
   2.805799707700000   0.000000000000000   0.000000000000000
   1.402899853850000   2.429893824799152   0.000000000000000
   0.000000000000003   0.000000000000002  51.029363052068653
%END BLOCK LATTICE_CART
%BLOCK POSITIONS_FRAC
    Al   0.000000000000000   0.000000000000000   0.000178800366972
    Al   0.333333333300000   0.333333333300000   0.045239608058479
    Al   0.666666666700000   0.666666666700000   0.090331305301058
    Al   0.000000000000000   0.000000000000000   0.135434104554543
    Al   0.333333333300000   0.333333333300000   0.181081629834130
    Al   0.000000000000000   0.000000000000000   0.226779464349018
    Al   0.566666666700000   0.566666666700000   0.273304192190980
    Al   0.900000000000000   0.900000000000000   0.318793536913417
    Al   0.233333333300000   0.233333333300000   0.363869643775295
    Al   0.566666666700000   0.566666666700000   0.408949344332507
    Al   0.900000000000000   0.900000000000000   0.454546837114746
    Al   0.566666666700000   0.566666666700000   0.500144061809727
    Al   0.233333333300000   0.233333333300000   0.545223654431329
    Al   0.900000000000000   0.900000000000000   0.590299139603695
    Al   0.566666666700000   0.566666666700000   0.635788003888505
    Al   0.000000000000000   0.000000000000000   0.682311903647159
    Al   0.333333333300000   0.333333333300000   0.728009073870046
    Al   0.000000000000000   0.000000000000000   0.773655749898483
    Al   0.666666666700000   0.666666666700000   0.818757980712627
    Al   0.333333333300000   0.333333333300000   0.863849028811720
    Al   0.000000000000000   0.000000000000000   0.908909536204682
    Al   0.666666666700000   0.666666666700000   0.954544084907748
%END BLOCK POSITIONS_FRAC
%BLOCK SPECIES_POT
    Al al_HC.lda.recpot                                                                       
%END BLOCK SPECIES_POT
%BLOCK ION_OPTIMIZATION
           0           0           1
           0           0           1
           0           0           1
           0           0           1
           0           0           1
           0           0           1
           0           0           1
           0           0           1
           0           0           1
           0           0           1
           0           0           1
           0           0           1
           0           0           1
           0           0           1
           0           0           1
           0           0           1
           0           0           1
           0           0           1
           0           0           1
           0           0           1
           0           0           1
           0           0           1
%END BLOCK ION_OPTIMIZATION
