ATOMIC_SPECIES
Si 14 si.lda.lps

LATTICE_CONSTANT
10.220303457786414  // add lattice constant

LATTICE_VECTORS
2.000000000000    0.000000000000    0.000000000000    
0.000000000000    1.000000000000    0.000000000000    
0.000000000000    0.000000000000    1.000000000000    

ATOMIC_POSITIONS
Direct

Si
0.0
15
0.25 0.5 0.0 1 1 1
0.25 0.0 0.5 1 1 1
0.0 0.5 0.5 1 1 1
0.125 0.25 0.25 1 1 1
0.375 0.75 0.25 1 1 1
0.375 0.25 0.75 1 1 1
0.125 0.75 0.75 1 1 1
0.5 0.0 0.0 1 1 1
0.75 0.5 0.0 1 1 1
0.75 0.0 0.5 1 1 1
0.5 0.5 0.5 1 1 1
0.625 0.25 0.25 1 1 1
0.875 0.75 0.25 1 1 1
0.875 0.25 0.75 1 1 1
0.625 0.75 0.75 1 1 1
