INPUT_PARAMETERS
#Parameters (1.General)
suffix			blpstest
calculation     scf
ntype			1
nbands			1030
symmetry		1
pseudo_dir      /home/mhchen_pkuhpc/mhchen_coe/lustre2/1_sunliang/2_software/PROFESS3.0/BLPSLibrary-master/LDA/real
pseudo_rcut     16

#Parameters (2.Iteration)
ecutwfc			60
scf_nmax		100

#Parameters (3.Basis)
basis_type		pw

#Parameters (4.Smearing)
smearing_method		gauss
smearing_sigma		0.0002

#Parameters (5.Mixing)
mixing_type		pulay
mixing_beta		0.7

#of_ml_gene_data		1
