ATOMIC_SPECIES
Ga  69.7230 ga.gga.psp blps
Sb 121.7600 sb.gga.psp blps

LATTICE_CONSTANT
1.8897259886

LATTICE_VECTORS
        2.1720542330       -3.7621082883        0.0000000000
        2.1720542330        3.7621082883        0.0000000000
        0.0000000000       -0.0000000000        7.1584886900

ATOMIC_POSITIONS
Direct

Ga #label
0.0000   #magnetism
2 #number of atoms
        0.6666666667        0.3333333333        0.4995001720 m 1 1 1
        0.3333333333        0.6666666667        0.9995001720 m 1 1 1

Sb #label
0.0000   #magnetism
2 #number of atoms
        0.6666666667        0.3333333333        0.8753998280 m 1 1 1
        0.3333333333        0.6666666667        0.3753998280 m 1 1 1
