ATOMIC_SPECIES
Ga  69.7230 ga.gga.psp blps
Sb 121.7600 sb.gga.psp blps

LATTICE_CONSTANT
1.8897259886

LATTICE_VECTORS
        2.1720496677       -3.7621003811        0.0000000000
        2.1720496677        3.7621003811        0.0000000000
        0.0000000000       -0.0000000000        7.1585385561

ATOMIC_POSITIONS
Direct

Ga #label
0.0000   #magnetism
2 #number of atoms
        0.6666666667        0.3333333333        0.4994984918 m 1 1 1
        0.3333333333        0.6666666667        0.9994984918 m 1 1 1

Sb #label
0.0000   #magnetism
2 #number of atoms
        0.6666666667        0.3333333333        0.8754015082 m 1 1 1
        0.3333333333        0.6666666667        0.3754015082 m 1 1 1
