ATOMIC_SPECIES
Ga  69.7230 ga.gga.psp blps
Sb 121.7600 sb.gga.psp blps

LATTICE_CONSTANT
1.8897259886

LATTICE_VECTORS
        2.1720487353       -3.7620987661        0.0000000000
        2.1720487353        3.7620987661        0.0000000000
        0.0000000000       -0.0000000000        7.1585488035

ATOMIC_POSITIONS
Direct

Ga #label
0.0000   #magnetism
2 #number of atoms
        0.6666666667        0.3333333333        0.4995025728 m 1 1 1
        0.3333333333        0.6666666667        0.9995025728 m 1 1 1

Sb #label
0.0000   #magnetism
2 #number of atoms
        0.6666666667        0.3333333333        0.8753974272 m 1 1 1
        0.3333333333        0.6666666667        0.3753974272 m 1 1 1
