ATOMIC_SPECIES
Ga  69.7230 ga.gga.psp blps
Sb 121.7600 sb.gga.psp blps

LATTICE_CONSTANT
1.8897259886

LATTICE_VECTORS
        2.1720497219       -3.7621004749        0.0000000000
        2.1720497219        3.7621004749        0.0000000000
        0.0000000000       -0.0000000000        7.1585379662

ATOMIC_POSITIONS
Direct

Ga #label
0.0000   #magnetism
2 #number of atoms
        0.6666666667        0.3333333333        0.4994985139 m 1 1 1
        0.3333333333        0.6666666667        0.9994985139 m 1 1 1

Sb #label
0.0000   #magnetism
2 #number of atoms
        0.6666666667        0.3333333333        0.8754014861 m 1 1 1
        0.3333333333        0.6666666667        0.3754014861 m 1 1 1
