ATOMIC_SPECIES
Ga  69.7230 ga.gga.psp blps
Sb 121.7600 sb.gga.psp blps

LATTICE_CONSTANT
1.8897259886

LATTICE_VECTORS
        2.1718849166       -3.7618150237        0.0000000000
        2.1718849166        3.7618150237        0.0000000000
        0.0000000000       -0.0000000000        7.1605677631

ATOMIC_POSITIONS
Direct

Ga #label
0.0000   #magnetism
2 #number of atoms
        0.6666666667        0.3333333333        0.4996380163 m 1 1 1
        0.3333333333        0.6666666667        0.9996380163 m 1 1 1

Sb #label
0.0000   #magnetism
2 #number of atoms
        0.6666666667        0.3333333333        0.8752619837 m 1 1 1
        0.3333333333        0.6666666667        0.3752619837 m 1 1 1
