ATOMIC_SPECIES
Mg 24.305 mg.gga.psp blps
Al 26.981 al.gga.psp blps

LATTICE_CONSTANT
1.8897259885789233  // add lattice constant

LATTICE_VECTORS
3.145708560000    0.000000000000    0.000000000000    
0.000000000000    4.890457030000    0.000000000000    
0.000000000000    0.000000000000    5.340193290000    

ATOMIC_POSITIONS
Direct

Mg
0.0
3
    0.000000000000    0.000000000000    0.668775590000 1 1 1
    0.000000000000    0.500000000000    0.325652440000 1 1 1
    0.500000000000    0.500000000000    0.837814470000 1 1 1
Al
0.0
1
    0.500000000000    0.000000000000    0.167756500000 1 1 1
