%BLOCK LATTICE_CART
   2.806843720900000   0.000000000000000   0.000000000000000
   1.403421860450000   2.430797966752238   0.000000000000000
   0.000000000000003   0.000000000000002  50.706991462995177
%END BLOCK LATTICE_CART
%BLOCK POSITIONS_FRAC
    Al   0.000000000000000   0.000000000000000   0.000133217637335
    Al   0.333333333300000   0.333333333300000   0.045122238664408
    Al   0.666666666700000   0.666666666700000   0.090249882669437
    Al   0.000000000000000   0.000000000000000   0.135202567128013
    Al   0.333333333300000   0.333333333300000   0.180975496814047
    Al   0.000000000000000   0.000000000000000   0.226359548648118
    Al   0.533333333300000   0.533333333300000   0.273709674936056
    Al   0.866666666700000   0.866666666700000   0.318761469573604
    Al   0.200000000000000   0.200000000000000   0.363970917191490
    Al   0.533333333300000   0.533333333300000   0.408952361116740
    Al   0.866666666700000   0.866666666700000   0.454541652476052
    Al   0.533333333300000   0.533333333300000   0.500131436053297
    Al   0.200000000000000   0.200000000000000   0.545113987393725
    Al   0.866666666700000   0.866666666700000   0.590325218809252
    Al   0.533333333300000   0.533333333300000   0.635378822309281
    Al   0.000000000000000   0.000000000000000   0.682731164630189
    Al   0.333333333300000   0.333333333300000   0.728116990627192
    Al   1.000000000000000   1.000000000000000   0.773891733376585
    Al   0.666666666700000   0.666666666700000   0.818845711263828
    Al   0.333333333300000   0.333333333300000   0.863974314121449
    Al   0.000000000000000   0.000000000000000   0.908963834701283
    Al   0.666666666700000   0.666666666700000   0.954548623846781
%END BLOCK POSITIONS_FRAC
%BLOCK SPECIES_POT
    Al al.lda.recpot                                                                          
%END BLOCK SPECIES_POT
%BLOCK ION_OPTIMIZATION
           0           0           1
           0           0           1
           0           0           1
           0           0           1
           0           0           1
           0           0           1
           0           0           1
           0           0           1
           0           0           1
           0           0           1
           0           0           1
           0           0           1
           0           0           1
           0           0           1
           0           0           1
           0           0           1
           0           0           1
           0           0           1
           0           0           1
           0           0           1
           0           0           1
           0           0           1
%END BLOCK ION_OPTIMIZATION
