%BLOCK LATTICE_CART
0.000000000000    2.971734524005    2.971734524005    
2.971734524005    0.000000000000    2.971734524005    
2.971734524005    2.971734524005    0.000000000000    
%END BLOCK LATTICE_CART
%BLOCK POSITIONS_FRAC
In    0.000000000000    0.000000000000    0.000000000000
P    0.250000000000    0.250000000000    0.250000000000
%END BLOCK POSITIONS_FRAC
%BLOCK SPECIES_POT
In in.gga.recpot
P p.gga.recpot
%END BLOCK SPECIES_POT
