%BLOCK LATTICE_CART
12.022479911744    0.000000000000    0.000000000000    
0.000000000000    12.022479911744    0.000000000000    
0.000000000000    0.000000000000    12.022479911744    
%END BLOCK LATTICE_CART
%BLOCK POSITIONS_FRAC
Al    0.166666666667    0.166666666667    0.000000000000
Al    0.166666666667    0.000000000000    0.166666666667
Al    0.000000000000    0.166666666667    0.166666666667
Al    0.000000000000    0.000000000000    0.333333333333
Al    0.166666666667    0.166666666667    0.333333333333
Al    0.166666666667    0.000000000000    0.500000000000
Al    0.000000000000    0.166666666667    0.500000000000
Al    0.000000000000    0.000000000000    0.666666666667
Al    0.166666666667    0.166666666667    0.666666666667
Al    0.166666666667    0.000000000000    0.833333333333
Al    0.000000000000    0.166666666667    0.833333333333
Al    0.000000000000    0.333333333333    0.000000000000
Al    0.166666666667    0.500000000000    0.000000000000
Al    0.166666666667    0.333333333333    0.166666666667
Al    0.000000000000    0.500000000000    0.166666666667
Al    0.000000000000    0.333333333333    0.333333333333
Al    0.166666666667    0.500000000000    0.333333333333
Al    0.166666666667    0.333333333333    0.500000000000
Al    0.000000000000    0.500000000000    0.500000000000
Al    0.000000000000    0.333333333333    0.666666666667
Al    0.166666666667    0.500000000000    0.666666666667
Al    0.166666666667    0.333333333333    0.833333333333
Al    0.000000000000    0.500000000000    0.833333333333
Al    0.000000000000    0.666666666667    0.000000000000
Al    0.166666666667    0.833333333333    0.000000000000
Al    0.166666666667    0.666666666667    0.166666666667
Al    0.000000000000    0.833333333333    0.166666666667
Al    0.000000000000    0.666666666667    0.333333333333
Al    0.166666666667    0.833333333333    0.333333333333
Al    0.166666666667    0.666666666667    0.500000000000
Al    0.000000000000    0.833333333333    0.500000000000
Al    0.000000000000    0.666666666667    0.666666666667
Al    0.166666666667    0.833333333333    0.666666666667
Al    0.166666666667    0.666666666667    0.833333333333
Al    0.000000000000    0.833333333333    0.833333333333
Al    0.333333333333    0.000000000000    0.000000000000
Al    0.500000000000    0.166666666667    0.000000000000
Al    0.500000000000    0.000000000000    0.166666666667
Al    0.333333333333    0.166666666667    0.166666666667
Al    0.333333333333    0.000000000000    0.333333333333
Al    0.500000000000    0.166666666667    0.333333333333
Al    0.500000000000    0.000000000000    0.500000000000
Al    0.333333333333    0.166666666667    0.500000000000
Al    0.333333333333    0.000000000000    0.666666666667
Al    0.500000000000    0.166666666667    0.666666666667
Al    0.500000000000    0.000000000000    0.833333333333
Al    0.333333333333    0.166666666667    0.833333333333
Al    0.333333333333    0.333333333333    0.000000000000
Al    0.500000000000    0.500000000000    0.000000000000
Al    0.500000000000    0.333333333333    0.166666666667
Al    0.333333333333    0.500000000000    0.166666666667
Al    0.333333333333    0.333333333333    0.333333333333
Al    0.500000000000    0.500000000000    0.333333333333
Al    0.500000000000    0.333333333333    0.500000000000
Al    0.333333333333    0.500000000000    0.500000000000
Al    0.333333333333    0.333333333333    0.666666666667
Al    0.500000000000    0.500000000000    0.666666666667
Al    0.500000000000    0.333333333333    0.833333333333
Al    0.333333333333    0.500000000000    0.833333333333
Al    0.333333333333    0.666666666667    0.000000000000
Al    0.500000000000    0.833333333333    0.000000000000
Al    0.500000000000    0.666666666667    0.166666666667
Al    0.333333333333    0.833333333333    0.166666666667
Al    0.333333333333    0.666666666667    0.333333333333
Al    0.500000000000    0.833333333333    0.333333333333
Al    0.500000000000    0.666666666667    0.500000000000
Al    0.333333333333    0.833333333333    0.500000000000
Al    0.333333333333    0.666666666667    0.666666666667
Al    0.500000000000    0.833333333333    0.666666666667
Al    0.500000000000    0.666666666667    0.833333333333
Al    0.333333333333    0.833333333333    0.833333333333
Al    0.666666666667    0.000000000000    0.000000000000
Al    0.833333333333    0.166666666667    0.000000000000
Al    0.833333333333    0.000000000000    0.166666666667
Al    0.666666666667    0.166666666667    0.166666666667
Al    0.666666666667    0.000000000000    0.333333333333
Al    0.833333333333    0.166666666667    0.333333333333
Al    0.833333333333    0.000000000000    0.500000000000
Al    0.666666666667    0.166666666667    0.500000000000
Al    0.666666666667    0.000000000000    0.666666666667
Al    0.833333333333    0.166666666667    0.666666666667
Al    0.833333333333    0.000000000000    0.833333333333
Al    0.666666666667    0.166666666667    0.833333333333
Al    0.666666666667    0.333333333333    0.000000000000
Al    0.833333333333    0.500000000000    0.000000000000
Al    0.833333333333    0.333333333333    0.166666666667
Al    0.666666666667    0.500000000000    0.166666666667
Al    0.666666666667    0.333333333333    0.333333333333
Al    0.833333333333    0.500000000000    0.333333333333
Al    0.833333333333    0.333333333333    0.500000000000
Al    0.666666666667    0.500000000000    0.500000000000
Al    0.666666666667    0.333333333333    0.666666666667
Al    0.833333333333    0.500000000000    0.666666666667
Al    0.833333333333    0.333333333333    0.833333333333
Al    0.666666666667    0.500000000000    0.833333333333
Al    0.666666666667    0.666666666667    0.000000000000
Al    0.833333333333    0.833333333333    0.000000000000
Al    0.833333333333    0.666666666667    0.166666666667
Al    0.666666666667    0.833333333333    0.166666666667
Al    0.666666666667    0.666666666667    0.333333333333
Al    0.833333333333    0.833333333333    0.333333333333
Al    0.833333333333    0.666666666667    0.500000000000
Al    0.666666666667    0.833333333333    0.500000000000
Al    0.666666666667    0.666666666667    0.666666666667
Al    0.833333333333    0.833333333333    0.666666666667
Al    0.833333333333    0.666666666667    0.833333333333
Al    0.666666666667    0.833333333333    0.833333333333
%END BLOCK POSITIONS_FRAC
%BLOCK SPECIES_POT
Al al.lda.recpot
%END BLOCK SPECIES_POT
