%BLOCK LATTICE_CART
  -0.000563021310779   2.003391657137922   2.003391643173110
   2.003391606009251  -0.000563051869823   2.003391622901982
   2.003391603918772   2.003391634776315  -0.000563037974689
%END BLOCK LATTICE_CART
%BLOCK POSITIONS_FRAC
    Al   0.000000000000000   0.000000000000000   0.000000000000000
%END BLOCK POSITIONS_FRAC
%BLOCK SPECIES_POT
    Al al.lda.recpot                                                                          
%END BLOCK SPECIES_POT
