ATOMIC_SPECIES
Li 6.941 li.gga.psp.1 blps
Al 26.981 al.gga.psp blps

LATTICE_CONSTANT
1.8897259885789233  // add lattice constant

LATTICE_VECTORS
2.234000948870    -3.869403147600    0.000000000000    
2.234000948870    3.869403147600    0.000000000000    
0.000000000000    0.000000000000    8.604099000000    

ATOMIC_POSITIONS
Direct

Li
0.0
4
    0.666666666667    0.333333333333    0.416381000000 1 1 1
    0.333333333333    0.666666666667    0.583619000000 1 1 1
    0.333333333333    0.666666666667    0.916381000000 1 1 1
    0.666666666667    0.333333333333    0.083619000000 1 1 1
Al
0.0
4
    0.000000000000    0.000000000000    0.250000000000 1 1 1
    0.000000000000    0.000000000000    0.750000000000 1 1 1
    0.666666666667    0.333333333333    0.750000000000 1 1 1
    0.333333333333    0.666666666667    0.250000000000 1 1 1
