%BLOCK LATTICE_CART
   2.805799707700000   0.000000000000000   0.000000000000000
   1.402899853850000   2.429893824799152   0.000000000000000
   0.000000000000003   0.000000000000002  50.991755453198714
%END BLOCK LATTICE_CART
%BLOCK POSITIONS_FRAC
    Al   0.000000000000000   0.000000000000000   0.000199180521076
    Al   0.333333333300000   0.333333333300000   0.045277349421776
    Al   0.666666666700000   0.666666666700000   0.090403659810137
    Al   0.000000000000000   0.000000000000000   0.135542663218821
    Al   0.333333333300000   0.333333333300000   0.181221408949410
    Al   0.000000000000000   0.000000000000000   0.226885410323985
    Al   0.600000000000000   0.600000000000000   0.273054684012475
    Al   0.933333333300000   0.933333333300000   0.318641633210733
    Al   0.266666666700000   0.266666666700000   0.363761720448723
    Al   0.600000000000000   0.600000000000000   0.408896542344688
    Al   0.933333333300000   0.933333333300000   0.454542793486897
    Al   0.600000000000000   0.600000000000000   0.500189310625424
    Al   0.266666666700000   0.266666666700000   0.545324814781406
    Al   0.933333333300000   0.933333333300000   0.590445933883999
    Al   0.600000000000000   0.600000000000000   0.636034216113570
    Al   0.000000000000000   0.000000000000000   0.682204908729698
    Al   0.333333333300000   0.333333333300000   0.727870401001096
    Al   1.000000000000000   1.000000000000000   0.773550604385149
    Al   0.666666666700000   0.666666666700000   0.818690783274321
    Al   0.333333333300000   0.333333333300000   0.863818009409768
    Al   0.000000000000000   0.000000000000000   0.908896738909932
    Al   0.666666666700000   0.666666666700000   0.954548066035441
%END BLOCK POSITIONS_FRAC
%BLOCK SPECIES_POT
    Al al_HC.lda.recpot                                                                       
%END BLOCK SPECIES_POT
%BLOCK ION_OPTIMIZATION
           0           0           1
           0           0           1
           0           0           1
           0           0           1
           0           0           1
           0           0           1
           0           0           1
           0           0           1
           0           0           1
           0           0           1
           0           0           1
           0           0           1
           0           0           1
           0           0           1
           0           0           1
           0           0           1
           0           0           1
           0           0           1
           0           0           1
           0           0           1
           0           0           1
           0           0           1
%END BLOCK ION_OPTIMIZATION
