%BLOCK LATTICE_CART
   2.805799707700000   0.000000000000000   0.000000000000000
   1.402899853850000   2.429893824799152   0.000000000000000
   0.000000000000003   0.000000000000002  51.032978806999942
%END BLOCK LATTICE_CART
%BLOCK POSITIONS_FRAC
    Al   0.000000000000000   0.000000000000000   0.000184323321521
    Al   0.333333333300000   0.333333333300000   0.045261904226668
    Al   0.666666666700000   0.666666666700000   0.090325133217322
    Al   0.000000000000000   0.000000000000000   0.135410460862809
    Al   0.333333333300000   0.333333333300000   0.181063660255009
    Al   0.000000000000000   0.000000000000000   0.227094624433163
    Al   0.433333333300000   0.433333333300000   0.273657054981804
    Al   0.766666666700000   0.766666666700000   0.318823266898597
    Al   0.100000000000000   0.100000000000000   0.363869069193972
    Al   0.433333333300000   0.433333333300000   0.408931831719131
    Al   0.766666666700000   0.766666666700000   0.454545172652707
    Al   0.433333333300000   0.433333333300000   0.500158561987128
    Al   0.100000000000000   0.100000000000000   0.545221432817986
    Al   0.766666666700000   0.766666666700000   0.590267389240446
    Al   0.433333333300000   0.433333333300000   0.635433745472146
    Al   0.000000000000000   0.000000000000000   0.681996321877774
    Al   0.333333333300000   0.333333333300000   0.728027427657783
    Al   0.000000000000000   0.000000000000000   0.773680761596682
    Al   0.666666666700000   0.666666666700000   0.818766175589328
    Al   0.333333333300000   0.333333333300000   0.863829467726323
    Al   0.000000000000000   0.000000000000000   0.908907068267982
    Al   0.666666666700000   0.666666666700000   0.954545702668599
%END BLOCK POSITIONS_FRAC
%BLOCK SPECIES_POT
    Al al_HC.lda.recpot                                                                       
%END BLOCK SPECIES_POT
%BLOCK ION_OPTIMIZATION
           0           0           1
           0           0           1
           0           0           1
           0           0           1
           0           0           1
           0           0           1
           0           0           1
           0           0           1
           0           0           1
           0           0           1
           0           0           1
           0           0           1
           0           0           1
           0           0           1
           0           0           1
           0           0           1
           0           0           1
           0           0           1
           0           0           1
           0           0           1
           0           0           1
           0           0           1
%END BLOCK ION_OPTIMIZATION
