ATOMIC_SPECIES
Al 27 al.lda.lps

LATTICE_CONSTANT
7.50241114482

LATTICE_VECTORS
0.707106781187 0 0 #latvec1
0.353553390593 0.612372435696 0 #latvec2
0 0 12.124355653 #latvec3

ATOMIC_POSITIONS
Direct

Al #label
0 #magnetism
21 #number of atoms
0  0  0  m  0  0  1
0.333333333332  0.333333333332  0.0476658154757  m  0  0  1
0.666666666668  0.666666666668  0.09531662774  m  0  0  1
0  0  0.142944751628  m  0  0  1
0.333333333332  0.333333333332  0.190544067715  m  0  0  1
0.666666666668  0.666666666668  0.238122876983  m  0  0  1
0  0  0.285697778171  m  0  0  1
0.333333333332  0.333333333332  0.333290823199  m  0  0  1
0.666666666668  0.666666666668  0.380905602337  m  0  0  1
0  0  0.428536516189  m  0  0  1
0.333333333332  0.333333333332  0.476177383484  m  0  0  1
0.666666666668  0.666666666668  0.523822616516  m  0  0  1
0  0  0.571463483811  m  0  0  1
0.333333333332  0.333333333332  0.619094397663  m  0  0  1
0.666666666668  0.666666666668  0.666709176801  m  0  0  1
0  0  0.714302221829  m  0  0  1
0.333333333332  0.333333333332  0.761877123017  m  0  0  1
0.666666666668  0.666666666668  0.809455932285  m  0  0  1
0  0  0.857055248372  m  0  0  1
0.333333333332  0.333333333332  0.90468337226  m  0  0  1
0.666666666668  0.666666666668  0.952334184524  m  0  0  1
