ATOMIC_SPECIES
Mg 12 mg.lda.lps

LATTICE_CONSTANT
8.409471575364243  // add lattice constant

LATTICE_VECTORS
0.000000000000    0.500000000000    0.500000000000    
0.500000000000    0.000000000000    0.500000000000    
0.500000000000    0.500000000000    0.000000000000    

ATOMIC_POSITIONS
Direct

Mg
0.0
1
    0.000000000000    0.000000000000    0.000000000000 1 1 1
