%BLOCK LATTICE_CART
   2.805799707700000   0.000000000000000   0.000000000000000
   1.402899853850000   2.429893824799152   0.000000000000000
   0.000000000000003   0.000000000000002  45.894407974799961
%END BLOCK LATTICE_CART
%BLOCK POSITIONS_FRAC
    Al   0.000000000000000   0.000000000000000   0.000150955770990
    Al   0.333333333300000   0.333333333300000   0.050041587178677
    Al   0.666666666700000   0.666666666700000   0.099843842189777
    Al   0.000000000000000   0.000000000000000   0.149685462734822
    Al   0.333333333300000   0.333333333300000   0.199829527432896
    Al   0.000000000000000   0.000000000000000   0.250156090710465
    Al   0.333333333300000   0.333333333300000   0.300300054851124
    Al   0.666666666700000   0.666666666700000   0.350100408817026
    Al   0.000000000000000   0.000000000000000   0.399910077668205
    Al   0.333333333300000   0.333333333300000   0.450000037027766
    Al   0.000000000000000   0.000000000000000   0.500090021543581
    Al   0.666666666700000   0.666666666700000   0.549899711823646
    Al   0.333333333300000   0.333333333300000   0.599700046142666
    Al   0.000000000000000   0.000000000000000   0.649843951741868
    Al   0.333333333300000   0.333333333300000   0.700170463959219
    Al   1.000000000000000   1.000000000000000   0.750314522441136
    Al   0.666666666700000   0.666666666700000   0.800156152525245
    Al   0.333333333300000   0.333333333300000   0.849958390987128
    Al   0.000000000000000   0.000000000000000   0.899848975832183
    Al   0.666666666700000   0.666666666700000   0.949999949803429
%END BLOCK POSITIONS_FRAC
%BLOCK SPECIES_POT
    Al al_HC.lda.recpot                                                                       
%END BLOCK SPECIES_POT
%BLOCK ION_OPTIMIZATION
           0           0           1
           0           0           1
           0           0           1
           0           0           1
           0           0           1
           0           0           1
           0           0           1
           0           0           1
           0           0           1
           0           0           1
           0           0           1
           0           0           1
           0           0           1
           0           0           1
           0           0           1
           0           0           1
           0           0           1
           0           0           1
           0           0           1
           0           0           1
%END BLOCK ION_OPTIMIZATION
