ATOMIC_SPECIES
Li 3 li.gga.psp.1 blps
Al 13 al.gga.psp blps

LATTICE_CONSTANT
11.716773018627823  // add lattice constant

LATTICE_VECTORS
1.000000000000    0.000000000000    0.000000000000    
0.000000000000    1.000000000000    0.000000000000    
0.000000000000    0.000000000000    1.000000000000    

ATOMIC_POSITIONS
Direct

Li
0.0
8
    0.250000000000    0.250000000000    0.250000000000 1 1 1
    0.500000000000    0.500000000000    0.000000000000 1 1 1
    0.250000000000    0.750000000000    0.750000000000 1 1 1
    0.500000000000    0.000000000000    0.500000000000 1 1 1
    0.750000000000    0.250000000000    0.750000000000 1 1 1
    0.000000000000    0.500000000000    0.500000000000 1 1 1
    0.750000000000    0.750000000000    0.250000000000 1 1 1
    0.000000000000    0.000000000000    0.000000000000 1 1 1
Al
0.0
8
    0.250000000000    0.750000000000    0.250000000000 1 1 1
    0.500000000000    0.000000000000    0.000000000000 1 1 1
    0.250000000000    0.250000000000    0.750000000000 1 1 1
    0.500000000000    0.500000000000    0.500000000000 1 1 1
    0.750000000000    0.750000000000    0.750000000000 1 1 1
    0.000000000000    0.000000000000    0.500000000000 1 1 1
    0.750000000000    0.250000000000    0.250000000000 1 1 1
    0.000000000000    0.500000000000    0.000000000000 1 1 1
