INPUT_PARAMETERS
#Parameters (1.General)
suffix			blpstest
calculation     scf
esolver_type    ofdft
ntype			1
nbands			15
symmetry		1
pseudo_dir      /home/dell/2_software/g_pPROFESS/BLPSLibrary-master/LDA/real
pseudo_rcut     16

#Parameters (2.Iteration)
ecutwfc			60
scf_nmax			100
#dft_functional  XC_GGA_X_PBE+XC_GGA_C_PBE


#Parameters (3.Basis)
basis_type		pw

#OFDFT
#of_kinetic     tf
#of_kinetic     vw
of_kinetic      wt
of_method       tn
of_conv         energy
of_tole         2e-6
of_read_kernel  1
of_kernel_file  ../../4PROFESS_KERNEL.dat
of_full_pw      1
of_full_pw_dim  0
