INPUT_PARAMETERS
calculation scf
ntype 2
ecutwfc 100.000000
scf_thr 5.000000e-07
scf_nmax 50
basis_type lcao
dft_functional scan
gamma_only 1
mixing_type pulay
mixing_beta 0.400000
smearing_method gaussian
smearing_sigma 0.0020000
