%BLOCK LATTICE_ABC
2.8057997077482204    2.8057997077482204    27.491110417733218    90.0000000000    90.0000000000    60.0000000000
%END BLOCK LATTICE_ABC
%BLOCK POSITIONS_FRAC
Al 0.000000000000    0.000000000000    0.000000000000
Al 0.333333333333    0.333333333333    0.083333333333
Al 0.666666666667    0.666666666667    0.166666666667
Al 0.000000000000    0.000000000000    0.250000000000
Al 0.333333333333    0.333333333333    0.333333333333
Al 0.000000000000    0.000000000000    0.416666666667
Al 0.333333333333    0.333333333333    0.500000000000
%END BLOCK POSITIONS_FRAC
%BLOCK SPECIES_POT
Al al_HC.lda.recpot
%END BLOCK SPECIES_POT

