%BLOCK LATTICE_CART
2.960528910000    0.000000000000    0.000000000000    
0.000000000000    4.875486830000    0.000000000000    
0.000000000000    0.000000000000    5.201479410000    
%END BLOCK LATTICE_CART
%BLOCK POSITIONS_FRAC
Mg    0.500000000000    0.250000000000    0.667101510000
Mg    0.500000000000    0.750000000000    0.332898490000
Al    0.000000000000    0.750000000000    0.842492690000
Al    0.000000000000    0.250000000000    0.157507310000
%END BLOCK POSITIONS_FRAC
%BLOCK SPECIES_POT
Mg mg.gga.recpot
Al al.gga.recpot
%END BLOCK SPECIES_POT
