%BLOCK LATTICE_CART
2.741343361978    0.000000000000    0.000000000000    
-1.370671680989    2.374072991969    0.000000000000    
0.000000000000    0.000000000000    4.366157553206    
%END BLOCK LATTICE_CART
%BLOCK POSITIONS_FRAC
Si    0.000000000000    0.000000000000    0.000000000000
Si    0.666666666667    0.333333333333    0.500000000000
%END BLOCK POSITIONS_FRAC
%BLOCK SPECIES_POT
Si si.gga.recpot
%END BLOCK SPECIES_POT
