%BLOCK LATTICE_CART
   2.805799707700000   0.000000000000000   0.000000000000000
   1.402899853850000   2.429893824799152   0.000000000000000
   0.000000000000003   0.000000000000002  51.459383504389997
%END BLOCK LATTICE_CART
%BLOCK POSITIONS_FRAC
    Al   0.000000000000000   0.000000000000000   0.999911912040734
    Al   0.333333333300000   0.333333333300000   0.045248750251349
    Al   0.666666666700000   0.666666666700000   0.090582109339150
    Al   0.000000000000000   0.000000000000000   0.135914280376055
    Al   0.333333333300000   0.333333333300000   0.181276121153434
    Al   0.000000000000000   0.000000000000000   0.226676917604464
    Al   0.533333333300000   0.533333333300000   0.273153006557424
    Al   0.866666666700000   0.866666666700000   0.318530971073309
    Al   0.200000000000000   0.200000000000000   0.363860842529301
    Al   0.533333333300000   0.533333333300000   0.409189037949856
    Al   0.866666666700000   0.866666666700000   0.454545560379377
    Al   0.533333333300000   0.533333333300000   0.499902091958171
    Al   0.200000000000000   0.200000000000000   0.545230305280665
    Al   0.866666666700000   0.866666666700000   0.590560180993479
    Al   0.533333333300000   0.533333333300000   0.635938122110269
    Al   0.000000000000000   0.000000000000000   0.682414149901798
    Al   0.333333333300000   0.333333333300000   0.727814891258202
    Al   0.000000000000000   0.000000000000000   0.773176652903867
    Al   0.666666666700000   0.666666666700000   0.818508729714185
    Al   0.333333333300000   0.333333333300000   0.863841987838865
    Al   0.000000000000000   0.000000000000000   0.909178750688307
    Al   0.666666666700000   0.666666666700000   0.954545315128755
%END BLOCK POSITIONS_FRAC
%BLOCK SPECIES_POT
    Al al.lda.recpot                                                                          
%END BLOCK SPECIES_POT
%BLOCK ION_OPTIMIZATION
           0           0           1
           0           0           1
           0           0           1
           0           0           1
           0           0           1
           0           0           1
           0           0           1
           0           0           1
           0           0           1
           0           0           1
           0           0           1
           0           0           1
           0           0           1
           0           0           1
           0           0           1
           0           0           1
           0           0           1
           0           0           1
           0           0           1
           0           0           1
           0           0           1
           0           0           1
%END BLOCK ION_OPTIMIZATION
