%BLOCK LATTICE_CART
-1.711462225766    1.711462225766    1.711462225766    
1.711462225766    -1.711462225766    1.711462225766    
1.711462225766    1.711462225766    -1.711462225766    
%END BLOCK LATTICE_CART
%BLOCK POSITIONS_FRAC
Li    0.000000000000    0.000000000000    0.000000000000
%END BLOCK POSITIONS_FRAC
%BLOCK SPECIES_POT
Li li.gga.recpot
%END BLOCK SPECIES_POT
