%BLOCK LATTICE_CART
0.000000000000    2.793430452565    2.793430452565    
2.793430452565    0.000000000000    2.793430452565    
2.793430452565    2.793430452565    0.000000000000    
%END BLOCK LATTICE_CART
%BLOCK POSITIONS_FRAC
Ga    0.000000000000    0.000000000000    0.000000000000
Sb    0.250000000000    0.250000000000    0.250000000000
%END BLOCK POSITIONS_FRAC
%BLOCK SPECIES_POT
Ga ga.gga.recpot
Sb sb.gga.recpot
%END BLOCK SPECIES_POT
