%BLOCK LATTICE_CART
   2.720162662986648  -0.000000001406139  -0.000000001487995
  -0.000000001406139   2.720162666588792  -0.000000002045938
  -0.000000001487995  -0.000000002045938   2.720162666588010
%END BLOCK LATTICE_CART
%BLOCK POSITIONS_FRAC
    Al   0.000000000000000   0.000000000000000   0.000000000000000
%END BLOCK POSITIONS_FRAC
%BLOCK SPECIES_POT
    Al al.lda.recpot                                                                          
%END BLOCK SPECIES_POT
