%BLOCK LATTICE_CART
  -1.595665853246046   1.595804411889986   1.595804319080524
   1.595804201455871  -1.595665873297156   1.595804338915729
   1.595804180752432   1.595804411021754  -1.595665852534817
%END BLOCK LATTICE_CART
%BLOCK POSITIONS_FRAC
    Al   0.000000000000000   0.000000000000000   0.000000000000000
%END BLOCK POSITIONS_FRAC
%BLOCK SPECIES_POT
    Al al.lda.recpot                                                                          
%END BLOCK SPECIES_POT
