%BLOCK LATTICE_CART
2.757824384195    0.000000000000    0.000000000000    
-1.378912192097    2.388345975889    0.000000000000    
0.000000000000    0.000000000000    4.392406997413    
%END BLOCK LATTICE_CART
%BLOCK POSITIONS_FRAC
Si    0.000000000000    0.000000000000    0.000000000000
Si    0.666666666667    0.333333333333    0.500000000000
%END BLOCK POSITIONS_FRAC
%BLOCK SPECIES_POT
Si si.gga.recpot
%END BLOCK SPECIES_POT
