%BLOCK LATTICE_CART
   2.786176589100000   0.000000000000000   0.000000000000000
   1.393088294550000   2.412899705590077   0.000000000000000
   0.000000000000003   0.000000000000002  58.432279411423714
%END BLOCK LATTICE_CART
%BLOCK POSITIONS_FRAC
    Al   0.000000000000000   0.000000000000000   0.989932055438417
    Al   0.333333333300000   0.333333333300000   0.050443036672079
    Al   0.666666666700000   0.666666666700000   0.094366575343244
    Al   0.000000000000000   0.000000000000000   0.123296468786965
    Al   0.333333333300000   0.333333333300000   0.168168043409232
    Al   0.000000000000000   0.000000000000000   0.226117687974449
    Al   0.600000000000000   0.600000000000000   0.284067271668052
    Al   0.933333333300000   0.933333333300000   0.328929691145194
    Al   0.266666666700000   0.266666666700000   0.357883641693332
    Al   0.600000000000000   0.600000000000000   0.401801155020867
    Al   0.933333333300000   0.933333333300000   0.462191597782484
    Al   0.600000000000000   0.600000000000000   0.506255562923120
    Al   0.266666666700000   0.266666666700000   0.535198948852485
    Al   0.933333333300000   0.933333333300000   0.579911678354992
    Al   0.600000000000000   0.600000000000000   0.637707231261317
    Al   0.000000000000000   0.000000000000000   0.695749841455385
    Al   0.333333333300000   0.333333333300000   0.739886833452021
    Al   0.000000000000000   0.000000000000000   0.768497614508369
    Al   0.666666666700000   0.666666666700000   0.812735920236390
    Al   0.333333333300000   0.333333333300000   0.872959272267321
    Al   0.000000000000000   0.000000000000000   0.917471380967141
    Al   0.666666666700000   0.666666666700000   0.946285523472965
%END BLOCK POSITIONS_FRAC
%BLOCK SPECIES_POT
    Al al.lda.recpot                                                                          
%END BLOCK SPECIES_POT
%BLOCK ION_OPTIMIZATION
           0           0           1
           0           0           1
           0           0           1
           0           0           1
           0           0           1
           0           0           1
           0           0           1
           0           0           1
           0           0           1
           0           0           1
           0           0           1
           0           0           1
           0           0           1
           0           0           1
           0           0           1
           0           0           1
           0           0           1
           0           0           1
           0           0           1
           0           0           1
           0           0           1
           0           0           1
%END BLOCK ION_OPTIMIZATION
