%BLOCK LATTICE_CART
2.896710000000    0.000000000000    0.000000000000    
0.000000000000    5.218916000000    0.000000000000    
0.000000000000    0.000000000000    11.804710000000    
%END BLOCK LATTICE_CART
%BLOCK POSITIONS_FRAC
Li    0.000000000000    0.000000000000    0.000000000000
Li    0.500000000000    0.500000000000    0.500000000000
Mg    0.000000000000    0.000000000000    0.747914000000
Mg    0.500000000000    0.500000000000    0.752086000000
Mg    0.500000000000    0.500000000000    0.247914000000
Mg    0.000000000000    0.000000000000    0.252086000000
Al    0.500000000000    0.500000000000    0.000000000000
Al    0.000000000000    0.000000000000    0.500000000000
%END BLOCK POSITIONS_FRAC
%BLOCK SPECIES_POT
Li li.gga.recpot
Mg mg.gga.recpot
Al al.gga.recpot
%END BLOCK SPECIES_POT
