%BLOCK LATTICE_CART
-1.539348641868    1.539348641868    1.539348641868    
1.539348641868    -1.539348641868    1.539348641868    
1.539348641868    1.539348641868    -1.539348641868    
%END BLOCK LATTICE_CART
%BLOCK POSITIONS_FRAC
Si    0.000000000000    0.000000000000    0.000000000000
%END BLOCK POSITIONS_FRAC
%BLOCK SPECIES_POT
Si si.gga.recpot
%END BLOCK SPECIES_POT
