%BLOCK LATTICE_CART
0.000000000000    10.878789657029    0.000000000000    
3.375393760000    0.000000000000    0.000000000000    
0.000000000000    -2.192954310004    -4.381279845690    
%END BLOCK LATTICE_CART
%BLOCK POSITIONS_FRAC
Li    0.133299480000    0.500000000000    0.383541190000
Li    0.366700520000    0.000000000000    0.616458810000
Li    0.633299480000    0.000000000000    0.383541190000
Li    0.866700520000    0.500000000000    0.616458810000
Mg    0.384604380000    0.500000000000    0.135454530000
Mg    0.115395620000    0.000000000000    0.864545470000
Mg    0.884604380000    0.000000000000    0.135454530000
Mg    0.615395620000    0.500000000000    0.864545470000
%END BLOCK POSITIONS_FRAC
%BLOCK SPECIES_POT
Li li.gga.recpot
Mg mg.gga.recpot
%END BLOCK SPECIES_POT
