%BLOCK LATTICE_CART
  -1.670224872391088   1.669800341038185   1.669812597364541
   1.669802991250716  -1.670216439474293   1.669804149832806
   1.669807058616405   1.669795960864296  -1.670220417720596
%END BLOCK LATTICE_CART
%BLOCK POSITIONS_FRAC
    Li   0.000000000000000   0.000000000000000   0.000000000000000
%END BLOCK POSITIONS_FRAC
%BLOCK SPECIES_POT
    Li li.lda.recpot                                                                          
%END BLOCK SPECIES_POT
