%BLOCK LATTICE_CART
   4.067393163144793   0.000000035733090  -0.000000050235208
   0.000000035733084   4.067393643896807   0.000000023922614
  -0.000000050235218   0.000000023922615   4.067393643896243
%END BLOCK LATTICE_CART
%BLOCK POSITIONS_FRAC
    Mg   0.000000000000000   0.000000000000000   0.000000000000000
    Al   0.000000000000000   0.500000000000000   0.500000000000000
    Al   0.500000000000000   0.500000000000000   0.000000000000000
    Al   0.500000000000000   0.000000000000000   0.500000000000000
%END BLOCK POSITIONS_FRAC
%BLOCK SPECIES_POT
    Mg mg.lda.recpot                                                                          
    Al al.lda.recpot                                                                          
%END BLOCK SPECIES_POT
