%BLOCK LATTICE_CART
3.145708560000    0.000000000000    0.000000000000    
0.000000000000    4.890457030000    0.000000000000    
0.000000000000    0.000000000000    5.340193290000    
%END BLOCK LATTICE_CART
%BLOCK POSITIONS_FRAC
Mg    0.000000000000    0.000000000000    0.668775590000
Mg    0.000000000000    0.500000000000    0.325652440000
Mg    0.500000000000    0.500000000000    0.837814470000
Al    0.500000000000    0.000000000000    0.167756500000
%END BLOCK POSITIONS_FRAC
%BLOCK SPECIES_POT
Mg mg.gga.recpot
Al al.gga.recpot
%END BLOCK SPECIES_POT
