ATOMIC_SPECIES
C 12 /home/mhchen_pkuhpc/mhchen_cls/lustre2/5_liurenxi/03a01_abacus-lcao-scan/pp/SG15_ONCV_v1.0_upf/C_ONCV_PBE-1.0.upf
H 1 /home/mhchen_pkuhpc/mhchen_cls/lustre2/5_liurenxi/03a01_abacus-lcao-scan/pp/SG15_ONCV_v1.0_upf/H_ONCV_PBE-1.0.upf
H_empty 1 /home/mhchen_pkuhpc/mhchen_cls/lustre2/5_liurenxi/03a01_abacus-lcao-scan/pp/SG15_ONCV_v1.0_upf/H_ONCV_PBE-1.0.upf
C_empty 12 /home/mhchen_pkuhpc/mhchen_cls/lustre2/5_liurenxi/03a01_abacus-lcao-scan/pp/SG15_ONCV_v1.0_upf/C_ONCV_PBE-1.0.upf
N_empty 14 /home/mhchen_pkuhpc/mhchen_cls/lustre2/5_liurenxi/03a01_abacus-lcao-scan/pp/SG15_ONCV_v1.0_upf/N_ONCV_PBE-1.0.upf

LATTICE_CONSTANT
1.8897161646321

LATTICE_VECTORS
20 0 0
0 20 0
0 0 20

NUMERICAL_ORBITAL
/home/mhchen_pkuhpc/mhchen_cls/lustre2/5_liurenxi/03a01_abacus-lcao-scan/orb/Orb_DZP_E100_Full/C/C_gga_10au_100Ry_2s2p1d.orb
/home/mhchen_pkuhpc/mhchen_cls/lustre2/5_liurenxi/03a01_abacus-lcao-scan/orb/Orb_DZP_E100_Full/H/H_gga_10au_100Ry_2s1p.orb
/home/mhchen_pkuhpc/mhchen_cls/lustre2/5_liurenxi/03a01_abacus-lcao-scan/orb/Orb_DZP_E100_Full/H/H_gga_10au_100Ry_2s1p.orb
/home/mhchen_pkuhpc/mhchen_cls/lustre2/5_liurenxi/03a01_abacus-lcao-scan/orb/Orb_DZP_E100_Full/C/C_gga_10au_100Ry_2s2p1d.orb
/home/mhchen_pkuhpc/mhchen_cls/lustre2/5_liurenxi/03a01_abacus-lcao-scan/orb/Orb_DZP_E100_Full/N/N_gga_10au_100Ry_2s2p1d.orb

ATOMIC_POSITIONS
Cartesian    # Cartesian(Unit is LATTICE_CONSTANT)
C
0.0
6
-0.021074 1.531861 -1.363935 m 0 0 0 
-1.274679 0.974103 -1.607410 m 0 0 0 
-1.378305 -0.225698 -2.308415 m 0 0 0 
-0.228943 -0.866405 -2.768794 m 0 0 0 
1.024788 -0.303517 -2.531241 m 0 0 0 
1.129000 0.896679 -1.829983 m 0 0 0 
H
0.0
6
0.060074 2.456563 -0.809396 m 0 0 0 
-2.165100 1.465452 -1.240568 m 0 0 0 
-2.350973 -0.661612 -2.492670 m 0 0 0 
-0.310342 -1.795576 -3.317270 m 0 0 0 
1.916585 -0.794084 -2.899394 m 0 0 0 
2.100035 1.332676 -1.640042 m 0 0 0 
H_empty
0.0
7
-2.941765 0.895383 2.223905 m 0 0 0 
-0.785153 2.044381 2.585609 m 0 0 0 
2.187011 1.699828 2.127590 m 0 0 0 
-0.972920 -2.455485 0.383401 m 0 0 0 
-3.038997 -1.320385 1.146840 m 0 0 0 
1.807574 -2.036696 0.233304 m 0 0 0 
3.502879 -0.348534 0.969523 m 0 0 0 
C_empty
0.0
8
-2.022067 0.425854 1.901355 m 0 0 0 
-0.814942 1.074045 2.106698 m 0 0 0 
0.370429 0.449285 1.684746 m 0 0 0 
1.750862 0.803894 1.719400 m 0 0 0 
2.445136 -0.231074 1.135331 m 0 0 0 
0.286121 -0.826949 1.061875 m 0 0 0 
-0.928467 -1.485312 0.860694 m 0 0 0 
-2.079285 -0.841767 1.287644 m 0 0 0 
N_empty
0.0
1
1.564646 -1.213781 0.755538 m 0 0 0 
