ATOMIC_SPECIES
Al 26.981539 al.lda.lps

LATTICE_CONSTANT
7.50241114482312  // add lattice constant

LATTICE_VECTORS
0.707106781187    0.000000000000    0.000000000000    
0.353553390593    0.612372435696    0.000000000000    
0.000000000000    0.000000000000    12.701705922171765

ATOMIC_POSITIONS
Direct

Al
0.0
22
-1.8311912731E-30 -1.8978935068E-30  8.4241905472E-05 1 1 1
 3.3333333330E-01  3.3333333330E-01  4.5300923975E-02 1 1 1
 6.6666666670E-01  6.6666666670E-01  9.0765103091E-02 1 1 1
-1.8178961747E-30 -1.8845984084E-30  1.3592849060E-01 1 1 1
 3.3333333330E-01  3.3333333330E-01  1.8143536627E-01 1 1 1
-1.8175151099E-30 -1.8842173436E-30  2.2680413760E-01 1 1 1
 5.0000000000E-01  5.0000000000E-01  2.7334651549E-01 1 1 1
 8.3333333330E-01  8.3333333330E-01  3.1859416624E-01 1 1 1
 1.6666666670E-01  1.6666666670E-01  3.6390368706E-01 1 1 1
 5.0000000000E-01  5.0000000000E-01  4.0907001516E-01 1 1 1
 8.3333333330E-01  8.3333333330E-01  4.5454545455E-01 1 1 1
 5.0000000000E-01  5.0000000000E-01  5.0002089394E-01 1 1 1
 1.6666666670E-01  1.6666666670E-01  5.4518722204E-01 1 1 1
 8.3333333330E-01  8.3333333330E-01  5.9049674286E-01 1 1 1
 5.0000000000E-01  5.0000000000E-01  6.3574439361E-01 1 1 1
-1.8175151099E-30 -1.8842173436E-30  6.8228677150E-01 1 1 1
 3.3333333330E-01  3.3333333330E-01  7.2765554283E-01 1 1 1
-1.8178961747E-30 -1.8845984084E-30  7.7316241850E-01 1 1 1
 6.6666666670E-01  6.6666666670E-01  8.1832580601E-01 1 1 1
 3.3333333330E-01  3.3333333330E-01  8.6378998513E-01 1 1 1
-1.8311912731E-30 -1.8978935068E-30  9.0900666719E-01 1 1 1
 6.6666666670E-01  6.6666666670E-01  9.5454545455E-01 1 1 1

