ATOMIC_SPECIES
Al 27 al.lda.lps

LATTICE_CONSTANT
7.50241114482

LATTICE_VECTORS
0.707106781187 0 0 #latvec1
0.353553390593 0.612372435696 0 #latvec2
0 0 11.5470053838 #latvec3

ATOMIC_POSITIONS
Direct

Al #label
0 #magnetism
20 #number of atoms
0 0 6.97635680322e-05 0 0 1 0 0 0
0.333333333332 0.333333333332 0.049895037327 0 0 1 0 0 0
0.666666666668 0.666666666668 0.100054946606 0 0 1 0 0 0
0 0 0.149981977823 0 0 1 0 0 0
0.333333333332 0.333333333332 0.199518115447 0 0 1 0 0 0
0.866666666667 0.866666666667 0.250504625071 0 0 1 0 0 0
0.200000000001 0.200000000001 0.299994658362 0 0 1 0 0 0
0.533333333333 0.533333333333 0.350049361572 0 0 1 0 0 0
0.866666666667 0.866666666667 0.399930186375 0 0 1 0 0 0
0.200000000001 0.200000000001 0.450016062966 0 0 1 0 0 0
0.866666666667 0.866666666667 0.500101064537 0 0 1 0 0 0
0.533333333333 0.533333333333 0.54997787162 0 0 1 0 0 0
0.200000000001 0.200000000001 0.600026268147 0 0 1 0 0 0
0.866666666667 0.866666666667 0.649508137706 0 0 1 0 0 0
0.333333333332 0.333333333332 0.700480441908 0 0 1 0 0 0
0 0 0.750006302163 0 0 1 0 0 0
0.666666666668 0.666666666668 0.799924616096 0 0 1 0 0 0
0.333333333332 0.333333333332 0.85007704233 0 0 1 0 0 0
0 0 0.899898460149 0 0 1 0 0 0
0.666666666668 0.666666666668 0.949985060225 0 0 1 0 0 0
