%BLOCK LATTICE_CART
   2.805799707700000   0.000000000000000   0.000000000000000
   1.402899853850000   2.429893824799152   0.000000000000000
   0.000000000000003   0.000000000000002  46.388043367972188
%END BLOCK LATTICE_CART
%BLOCK POSITIONS_FRAC
    Al   0.000000000000000   0.000000000000000   0.000260764415905
    Al   0.333333333300000   0.333333333300000   0.049938899287931
    Al   0.666666666700000   0.666666666700000   0.099620780358305
    Al   0.000000000000000   0.000000000000000   0.149307624424388
    Al   0.333333333300000   0.333333333300000   0.199265593020391
    Al   0.800000000000000   0.800000000000000   0.250690818080689
    Al   0.133333333300000   0.133333333300000   0.300576369459100
    Al   0.466666666700000   0.466666666700000   0.350204926955992
    Al   0.800000000000000   0.800000000000000   0.399806286284250
    Al   0.133333333300000   0.133333333300000   0.450000254076805
    Al   0.800000000000000   0.800000000000000   0.500194233711743
    Al   0.466666666700000   0.466666666700000   0.549795566890454
    Al   0.133333333300000   0.133333333300000   0.599423938128636
    Al   0.800000000000000   0.800000000000000   0.649309223588604
    Al   0.333333333300000   0.333333333300000   0.700734249015914
    Al   0.000000000000000   0.000000000000000   0.750692039635764
    Al   0.666666666700000   0.666666666700000   0.800378806161967
    Al   0.333333333300000   0.333333333300000   0.850060577169408
    Al   0.000000000000000   0.000000000000000   0.899738552999894
    Al   0.666666666700000   0.666666666700000   0.949999619625623
%END BLOCK POSITIONS_FRAC
%BLOCK SPECIES_POT
    Al al_HC.lda.recpot                                                                       
%END BLOCK SPECIES_POT
%BLOCK ION_OPTIMIZATION
           0           0           1
           0           0           1
           0           0           1
           0           0           1
           0           0           1
           0           0           1
           0           0           1
           0           0           1
           0           0           1
           0           0           1
           0           0           1
           0           0           1
           0           0           1
           0           0           1
           0           0           1
           0           0           1
           0           0           1
           0           0           1
           0           0           1
           0           0           1
%END BLOCK ION_OPTIMIZATION
