%BLOCK LATTICE_CART
   2.694713495510614  -0.000056736613656  -0.000097491880523
  -0.000056736600431   2.694714468894472  -0.000018129088160
  -0.000097491856293  -0.000018129087371   2.694714469623347
%END BLOCK LATTICE_CART
%BLOCK POSITIONS_FRAC
    Li   0.000000000000000   0.000000000000000   0.000000000000000
%END BLOCK POSITIONS_FRAC
%BLOCK SPECIES_POT
    Li li.lda.recpot                                                                          
%END BLOCK SPECIES_POT
