%BLOCK LATTICE_CART
   2.805799707700000   0.000000000000000   0.000000000000000
   1.402899853850000   2.429893824799152   0.000000000000000
   0.000000000000003   0.000000000000002  50.586835814806967
%END BLOCK LATTICE_CART
%BLOCK POSITIONS_FRAC
    Al   0.000000000000000   0.000000000000000   0.000009388028939
    Al   0.333333333300000   0.333333333300000   0.045237769958077
    Al   0.666666666700000   0.666666666700000   0.090434784313191
    Al   0.000000000000000   0.000000000000000   0.135704138302937
    Al   0.333333333300000   0.333333333300000   0.181197451671393
    Al   0.000000000000000   0.000000000000000   0.226718689059588
    Al   0.566666666700000   0.566666666700000   0.273237831462937
    Al   0.900000000000000   0.900000000000000   0.318662792042570
    Al   0.233333333300000   0.233333333300000   0.363872552661016
    Al   0.566666666700000   0.566666666700000   0.409095548647041
    Al   0.900000000000000   0.900000000000000   0.454546774675724
    Al   0.566666666700000   0.566666666700000   0.499997904125828
    Al   0.233333333300000   0.233333333300000   0.545220588334394
    Al   0.900000000000000   0.900000000000000   0.590429881818490
    Al   0.566666666700000   0.566666666700000   0.635854190448472
    Al   0.000000000000000   0.000000000000000   0.682372638598336
    Al   0.333333333300000   0.333333333300000   0.727893108901366
    Al   0.000000000000000   0.000000000000000   0.773385729749017
    Al   0.666666666700000   0.666666666700000   0.818654414031688
    Al   0.333333333300000   0.333333333300000   0.863850939134172
    Al   0.000000000000000   0.000000000000000   0.909078957927977
    Al   0.666666666700000   0.666666666700000   0.954544120763631
%END BLOCK POSITIONS_FRAC
%BLOCK SPECIES_POT
    Al al_HC.lda.recpot                                                                       
%END BLOCK SPECIES_POT
%BLOCK ION_OPTIMIZATION
           0           0           1
           0           0           1
           0           0           1
           0           0           1
           0           0           1
           0           0           1
           0           0           1
           0           0           1
           0           0           1
           0           0           1
           0           0           1
           0           0           1
           0           0           1
           0           0           1
           0           0           1
           0           0           1
           0           0           1
           0           0           1
           0           0           1
           0           0           1
           0           0           1
           0           0           1
%END BLOCK ION_OPTIMIZATION
