%BLOCK LATTICE_CART
  -1.748459372827890   1.748059787545049   1.748059859077868
   1.748059819096943  -1.748459336305007   1.748059822513164
   1.748059839048252   1.748059770931654  -1.748459356176922
%END BLOCK LATTICE_CART
%BLOCK POSITIONS_FRAC
    Mg   0.000000000000000   0.000000000000000   0.000000000000000
%END BLOCK POSITIONS_FRAC
%BLOCK SPECIES_POT
    Mg mg.lda.recpot                                                                          
%END BLOCK SPECIES_POT
