%BLOCK LATTICE_CART
2.872459843200    0.000000000000    0.000000000000    
0.000000000000    2.872459843200    0.000000000000    
0.000000000000    0.000000000000    2.872459843200    
%END BLOCK LATTICE_CART
%BLOCK POSITIONS_FRAC
Al    0.000000000000    0.000000000000    0.000000000000
%END BLOCK POSITIONS_FRAC
%BLOCK SPECIES_POT
Al al.gga.recpot
%END BLOCK SPECIES_POT
