ATOMIC_SPECIES
Al 13 al.gga.psp blps

LATTICE_CONSTANT
5.122271120075402  // add lattice constant

LATTICE_VECTORS
1.000000000000    0.000000000000    0.000000000000    
0.000000000000    1.000000000000    0.000000000000    
0.000000000000    0.000000000000    1.000000000000    

ATOMIC_POSITIONS
Direct

Al
0.0
1
    0.000000000000    0.000000000000    0.000000000000 1 1 1
