ATOMIC_SPECIES
Al 27 al.lda.lps

LATTICE_CONSTANT
7.50241114482

LATTICE_VECTORS
0.707106781187 0 0 #latvec1
0.353553390593 0.612372435696 0 #latvec2
0 0 12.7017059222 #latvec3

ATOMIC_POSITIONS
Direct

Al #label
0 #magnetism
22 #number of atoms
0 0 0.00012935585555 0 0 1 0 0 0
0.333333333332 0.333333333332 0.0453052759427 0 0 1 0 0 0
0.666666666668 0.666666666668 0.0910535333051 0 0 1 0 0 0
0 0 0.136242319292 0 0 1 0 0 0
0.333333333332 0.333333333332 0.181894971893 0 0 1 0 0 0
0 0 0.227254476064 0 0 1 0 0 0
0.633333333333 0.633333333333 0.272730416869 0 0 1 0 0 0
0.966666666667 0.966666666667 0.318342294252 0 0 1 0 0 0
0.299999999999 0.299999999999 0.363636630084 0 0 1 0 0 0
0.633333333333 0.633333333333 0.409045935948 0 0 1 0 0 0
0.966666666667 0.966666666667 0.454567521284 0 0 1 0 0 0
0.633333333333 0.633333333333 0.500085920564 0 0 1 0 0 0
0.299999999999 0.299999999999 0.545488713013 0 0 1 0 0 0
0.966666666667 0.966666666667 0.590773625371 0 0 1 0 0 0
0.633333333333 0.633333333333 0.63637361955 0 0 1 0 0 0
0 0 0.681840406717 0 0 1 0 0 0
0.333333333332 0.333333333332 0.727190980863 0 0 1 0 0 0
0 0 0.772834740814 0 0 1 0 0 0
0.666666666668 0.666666666668 0.818013187176 0 0 1 0 0 0
0.333333333332 0.333333333332 0.863751696053 0 0 1 0 0 0
0 0 0.908921075759 0 0 1 0 0 0
0.666666666668 0.666666666668 0.95452330333 0 0 1 0 0 0
