ATOMIC_SPECIES
Mg 24.305 mg.gga.psp blps
Al 26.981 al.gga.psp blps

LATTICE_CONSTANT
1.8897259885789233  // add lattice constant

LATTICE_VECTORS
5.751610000000    0.000000000000    0.000000000000    
0.000000000000    5.751610000000    0.000000000000    
0.000000000000    0.000000000000    5.751610000000    

ATOMIC_POSITIONS
Direct

Mg
0.0
4
    0.500000000000    0.000000000000    0.000000000000 1 1 1
    0.500000000000    0.500000000000    0.500000000000 1 1 1
    0.000000000000    0.000000000000    0.500000000000 1 1 1
    0.000000000000    0.500000000000    0.000000000000 1 1 1
Al
0.0
4
    0.000000000000    0.000000000000    0.000000000000 1 1 1
    0.000000000000    0.500000000000    0.500000000000 1 1 1
    0.500000000000    0.000000000000    0.500000000000 1 1 1
    0.500000000000    0.500000000000    0.000000000000 1 1 1
