ATOMIC_SPECIES
Li 6.941 li.gga.psp.1 blps
Mg 24.305 mg.gga.psp blps
Al 26.981 al.gga.psp blps

LATTICE_CONSTANT
1.8897259885789233  // add lattice constant

LATTICE_VECTORS
2.896710000000    0.000000000000    0.000000000000    
0.000000000000    5.218916000000    0.000000000000    
0.000000000000    0.000000000000    11.804710000000    

ATOMIC_POSITIONS
Direct

Li
0.0
2
    0.000000000000    0.000000000000    0.000000000000 1 1 1
    0.500000000000    0.500000000000    0.500000000000 1 1 1
Mg
0.0
4
    0.000000000000    0.000000000000    0.747914000000 1 1 1
    0.500000000000    0.500000000000    0.752086000000 1 1 1
    0.500000000000    0.500000000000    0.247914000000 1 1 1
    0.000000000000    0.000000000000    0.252086000000 1 1 1
Al
0.0
2
    0.500000000000    0.500000000000    0.000000000000 1 1 1
    0.000000000000    0.000000000000    0.500000000000 1 1 1
