ATOMIC_SPECIES
Al 27 al.lda.lps

LATTICE_CONSTANT
7.50241114482

LATTICE_VECTORS
0.707106781187 0 0 #latvec1
0.353553390593 0.612372435696 0 #latvec2
0 0 12.7017059222 #latvec3

ATOMIC_POSITIONS
Direct

Al #label
0 #magnetism
22 #number of atoms
0 0 0.000972825536838 0 0 1 0 0 0
0.333333333332 0.333333333332 0.0445812510998 0 0 1 0 0 0
0.666666666668 0.666666666668 0.0917239804778 0 0 1 0 0 0
0 0 0.135895806952 0 0 1 0 0 0
0.333333333332 0.333333333332 0.181396252849 0 0 1 0 0 0
0 0 0.227373123418 0 0 1 0 0 0
0.366666666667 0.366666666667 0.273555411876 0 0 1 0 0 0
0.700000000001 0.700000000001 0.317569811246 0 0 1 0 0 0
0.0333333333328 0.0333333333328 0.36426984933 0 0 1 0 0 0
0.366666666667 0.366666666667 0.408164878403 0 0 1 0 0 0
0.700000000001 0.700000000001 0.454496911462 0 0 1 0 0 0
0.366666666667 0.366666666667 0.500871421398 0 0 1 0 0 0
0.0333333333328 0.0333333333328 0.544768406311 0 0 1 0 0 0
0.700000000001 0.700000000001 0.591523206458 0 0 1 0 0 0
0.366666666667 0.366666666667 0.635607356014 0 0 1 0 0 0
0 0 0.681767998423 0 0 1 0 0 0
0.333333333332 0.333333333332 0.727745347118 0 0 1 0 0 0
0 0 0.77320224833 0 0 1 0 0 0
0.666666666668 0.666666666668 0.817382486302 0 0 1 0 0 0
0.333333333332 0.333333333332 0.864511827358 0 0 1 0 0 0
0 0 0.908080777761 0 0 1 0 0 0
0.666666666668 0.666666666668 0.954538821876 0 0 1 0 0 0
