ATOMIC_SPECIES
C 12 /home/mhchen_pkuhpc/mhchen_cls/lustre2/5_liurenxi/03a01_abacus-lcao-scan/pp/SG15_ONCV_v1.0_upf/C_ONCV_PBE-1.0.upf
N 14 /home/mhchen_pkuhpc/mhchen_cls/lustre2/5_liurenxi/03a01_abacus-lcao-scan/pp/SG15_ONCV_v1.0_upf/N_ONCV_PBE-1.0.upf
H 1 /home/mhchen_pkuhpc/mhchen_cls/lustre2/5_liurenxi/03a01_abacus-lcao-scan/pp/SG15_ONCV_v1.0_upf/H_ONCV_PBE-1.0.upf
C_empty 12 /home/mhchen_pkuhpc/mhchen_cls/lustre2/5_liurenxi/03a01_abacus-lcao-scan/pp/SG15_ONCV_v1.0_upf/C_ONCV_PBE-1.0.upf
N_empty 14 /home/mhchen_pkuhpc/mhchen_cls/lustre2/5_liurenxi/03a01_abacus-lcao-scan/pp/SG15_ONCV_v1.0_upf/N_ONCV_PBE-1.0.upf
H_empty 1 /home/mhchen_pkuhpc/mhchen_cls/lustre2/5_liurenxi/03a01_abacus-lcao-scan/pp/SG15_ONCV_v1.0_upf/H_ONCV_PBE-1.0.upf

LATTICE_CONSTANT
1.8897161646321

LATTICE_VECTORS
20 0 0
0 20 0
0 0 20

NUMERICAL_ORBITAL
/home/mhchen_pkuhpc/mhchen_cls/lustre2/5_liurenxi/03a01_abacus-lcao-scan/orb/Orb_DZP_E100_Full/C/C_gga_10au_100Ry_2s2p1d.orb
/home/mhchen_pkuhpc/mhchen_cls/lustre2/5_liurenxi/03a01_abacus-lcao-scan/orb/Orb_DZP_E100_Full/N/N_gga_10au_100Ry_2s2p1d.orb
/home/mhchen_pkuhpc/mhchen_cls/lustre2/5_liurenxi/03a01_abacus-lcao-scan/orb/Orb_DZP_E100_Full/H/H_gga_10au_100Ry_2s1p.orb
/home/mhchen_pkuhpc/mhchen_cls/lustre2/5_liurenxi/03a01_abacus-lcao-scan/orb/Orb_DZP_E100_Full/C/C_gga_10au_100Ry_2s2p1d.orb
/home/mhchen_pkuhpc/mhchen_cls/lustre2/5_liurenxi/03a01_abacus-lcao-scan/orb/Orb_DZP_E100_Full/N/N_gga_10au_100Ry_2s2p1d.orb
/home/mhchen_pkuhpc/mhchen_cls/lustre2/5_liurenxi/03a01_abacus-lcao-scan/orb/Orb_DZP_E100_Full/H/H_gga_10au_100Ry_2s1p.orb

ATOMIC_POSITIONS
Cartesian    # Cartesian(Unit is LATTICE_CONSTANT)
C
0.0
4
-1.247189 -1.171821 -0.696139 m 0 0 0 
-1.247189 -1.171821 0.696139 m 0 0 0 
0.731533 -2.265222 0.696729 m 0 0 0 
0.731533 -2.265222 -0.696729 m 0 0 0 
N
0.0
2
-0.258951 -1.723577 1.414480 m 0 0 0 
-0.258951 -1.723577 -1.414480 m 0 0 0 
H
0.0
4
-2.063436 -0.722320 -1.247280 m 0 0 0 
-2.063436 -0.722320 1.247280 m 0 0 0 
1.548800 -2.712828 1.247560 m 0 0 0 
1.548800 -2.712828 -1.247560 m 0 0 0 
C_empty
0.0
4
-0.338003 2.080061 1.130045 m 0 0 0 
0.854025 1.359347 1.130631 m 0 0 0 
0.854025 1.359347 -1.130631 m 0 0 0 
-0.338003 2.080061 -1.130045 m 0 0 0 
N_empty
0.0
2
1.470179 0.990760 0.000000 m 0 0 0 
-0.952306 2.452884 0.000000 m 0 0 0 
H_empty
0.0
4
-0.810376 2.364303 2.061864 m 0 0 0 
1.320858 1.067061 2.062399 m 0 0 0 
1.320858 1.067061 -2.062399 m 0 0 0 
-0.810376 2.364303 -2.061864 m 0 0 0 
