%BLOCK LATTICE_CART
   2.811898823192563   0.001205305033895  -0.000000032589818
  -1.404905604905518   2.435778497642888   0.000000001198540
  -0.000000020237153   0.000000000621645   4.618581539344906
%END BLOCK LATTICE_CART
%BLOCK POSITIONS_FRAC
    Al   0.000000000000000   0.000000000000000   0.000000000000000
    Al   0.666666666667000   0.333333333333000   0.500000000000000
%END BLOCK POSITIONS_FRAC
%BLOCK SPECIES_POT
    Al al.lda.recpot                                                                          
%END BLOCK SPECIES_POT
