%BLOCK LATTICE_CART
   4.125422025208338  -0.000000272011233  -0.000000620344841
  -0.000000272011226   4.125422651977308  -0.000000031582117
  -0.000000620344830  -0.000000031582119   4.125422651978259
%END BLOCK LATTICE_CART
%BLOCK POSITIONS_FRAC
    Mg   0.000000000000000   0.000000000000000   0.000000000000000
    Al   0.000000000000000   0.500000000000000   0.500000000000000
    Al   0.500000000000000   0.500000000000000   0.000000000000000
    Al   0.500000000000000   0.000000000000000   0.500000000000000
%END BLOCK POSITIONS_FRAC
%BLOCK SPECIES_POT
    Mg mg.lda.recpot                                                                          
    Al al.lda.recpot                                                                          
%END BLOCK SPECIES_POT
