%BLOCK LATTICE_CART
3.078390315233    0.000000000000    0.000000000000    
-1.539195157616    2.665964215755    0.000000000000    
0.000000000000    0.000000000000    4.998870672652    
%END BLOCK LATTICE_CART
%BLOCK POSITIONS_FRAC
Mg    0.000000000000    0.000000000000    0.000000000000
Mg    0.666666666667    0.333333333333    0.500000000000
%END BLOCK POSITIONS_FRAC
%BLOCK SPECIES_POT
Mg mg.lda.recpot
%END BLOCK SPECIES_POT
