%BLOCK LATTICE_CART
   2.911598135171083   0.000000016180402   0.000000042239406
   0.000000016180402   2.911598135987702  -0.000000010950568
   0.000000042239406  -0.000000010950568   2.911598135988037
%END BLOCK LATTICE_CART
%BLOCK POSITIONS_FRAC
    Mg   0.000000000000000   0.000000000000000   0.000000000000000
%END BLOCK POSITIONS_FRAC
%BLOCK SPECIES_POT
    Mg mg.lda.recpot                                                                          
%END BLOCK SPECIES_POT
