INPUT_PARAMETERS
calculation md
ntype 2
ecutwfc 80.000000
#scf_nmax 1
basis_type pw 
dft_functional scan
gamma_only 1
mixing_type pulay
mixing_beta 0.400000
smearing_method gaussian 
smearing_sigma 0.025000
cal_force 1
scf_thr 1e-6

#md
md_type 1
md_nstep 10
md_dt 0.5
md_tfirst 330
md_tlast 330
md_tfreq 0.06
chg_extrap second-order
