ATOMIC_SPECIES
H 2.01410178 /home/saber/work/03a01_scan+lcao_test/tools_for_water/H_ONCV_PBE-1.0.upf
O 15.9994 /home/saber/work/03a01_scan+lcao_test/tools_for_water/O_ONCV_PBE-1.0.upf

LATTICE_CONSTANT
1.8897259886

LATTICE_VECTORS
9.8773532935 0 0
0 9.8773532935 0
0 0 9.8773532935

NUMERICAL_ORBITAL
/home/saber/work/03a01_scan+lcao_test/tools_for_water/H_gga_6au_100Ry_3s2p.orb
/home/saber/work/03a01_scan+lcao_test/tools_for_water/O_gga_6au_100Ry_3s3p2d.orb

ATOMIC_POSITIONS
Cartesian    # Cartesian(Unit is LATTICE_CONSTANT)

H
0.0
64
7.46658         7.720508        8.462464
7.837249        9.019738        9.089016
3.141506        4.095528        7.65764
3.976038        3.527143        8.933651
0.703744        9.7             3.657703
0.74451         0.414859        2.194475
0.473992        1.529135        9.669791
9.155964        1.491059        0.961293
7.900364        7.068412        2.666276
6.312312        7.269075        2.459328
0.025371        1.075097        7.626251
1.10095         0.004147        7.926102
6.582411        2.858859        3.633793
7.57173         2.618724        4.790018
5.159569        7.437319        0.674221
4.782238        8.616528        1.66506
1.935107        3.340134        5.72982
1.581171        4.906968        6.345007
5.455693        5.636094        8.021848
6.968904        5.881947        7.517283
2.530522        3.478863        2.03395
1.091807        2.883022        1.821398
0.959009        6.573296        1.757122
2.140354        5.93459         2.465111
6.096436        8.901626        7.061563
6.134242        9.304584        5.565656
9.006471        4.743781        9.748589
0.617385        5.270595        0.223055
5.23696         4.559966        2.792919
6.634254        5.152985        2.683936
2.898247        7.725941        8.212183
3.072503        9.134742        7.658769
3.435467        4.715697        4.133225
3.955401        6.127396        4.138393
4.991682        7.861286        5.98065
3.523761        7.316506        6.09828
8.745698        6.188759        6.212344
7.603706        6.545233        5.089688
7.698028        2.430296        9.089294
7.139915        1.1977          8.248244
4.506632        0.594342        4.417458
5.706745        1.442272        4.986518
0.705063        7.01618         6.9967
0.190861        5.83979         8.036987
8.649262        4.020626        5.915565
8.318066        2.761703        6.871572
7.101874        9.819534        1.733557
7.280892        1.256794        2.633338
8.676474        0.30279         5.568785
9.014426        8.783256        5.649359
6.836857        4.130117        1.059653
6.85357         4.761419        9.5319
9.079675        7.758666        0.765208
9.714358        8.437411        1.991219
4.033807        8.388907        3.936554
2.855965        9.208205        3.202101
2.736145        1.654343        7.581333
3.980158        1.426842        6.74733
5.225232        9.109291        9.280768
5.117104        0.626056        8.380374
2.952814        6.719283        0.436319
3.667334        5.827697        9.182507
0.494395        2.158549        5.494071
1.191047        2.280402        4.148124
O
0.0
32
8.171253        8.130115        8.999916
3.677241        4.384907        8.423152
1.09732         9.543909        2.780291
0.281089        1.642284        0.773692
6.987891        6.801016        2.97959
0.796092        0.867295        8.16411
6.97567         2.139196        4.179089
5.478999        8.24875         1.049992
2.255375        4.142932        6.332412
6.357995        5.850375        8.285736
1.760686        3.164897        2.504066
1.789953        6.137083        1.545086
6.472363        8.660221        6.211284
9.829659        5.17085         9.356883
6.155771        4.253216        2.605794
2.451867        8.380653        7.570978
3.661353        5.448389        3.510504
4.274025        7.504424        5.482021
7.822626        5.953753        5.855907
7.832867        1.907411        8.254121
4.894761        0.910852        5.221068
0.358222        6.091852        7.028814
8.702439        3.075092        6.023315
7.533879        0.740543        1.825603
9.434227        9.595103        5.530284
7.256717        4.026289        0.192088
9.270357        7.562775        1.708414
3.824552        9.00828         3.215596
3.716265        1.715651        7.609208
5.541977        9.626799        8.501173
3.622426        6.696512        9.592846
1.317612        1.927017        5.032636
