%BLOCK LATTICE_CART
3.095372657300    0.000000000000    0.000000000000    
-1.547686328650    2.680671355402    0.000000000000    
0.000000000000    0.000000000000    5.079269893104    
%END BLOCK LATTICE_CART
%BLOCK POSITIONS_FRAC
Al    0.000000000000    0.000000000000    0.000000000000
Al    0.666666666667    0.333333333333    0.500000000000
%END BLOCK POSITIONS_FRAC
%BLOCK SPECIES_POT
Al al.gga.recpot
%END BLOCK SPECIES_POT
