%BLOCK LATTICE_CART
   4.093901197207924  -0.000000079922422  -0.000000237792605
  -0.000000079922423   4.093901652500680  -0.000000002122621
  -0.000000237792608  -0.000000002122621   4.093901652502453
%END BLOCK LATTICE_CART
%BLOCK POSITIONS_FRAC
    Mg   0.000000000000000   0.000000000000000   0.000000000000000
    Al   0.000000000000000   0.500000000000000   0.500000000000000
    Al   0.500000000000000   0.500000000000000   0.000000000000000
    Al   0.500000000000000   0.000000000000000   0.500000000000000
%END BLOCK POSITIONS_FRAC
%BLOCK SPECIES_POT
    Mg mg.lda.recpot                                                                          
    Al al.lda.recpot                                                                          
%END BLOCK SPECIES_POT
