ATOMIC_SPECIES
Si 14 si.lda.lps blps

LATTICE_CONSTANT
10.220303457786414  // add lattice constant

LATTICE_VECTORS
3.000000000000    0.000000000000    0.000000000000    
0.000000000000    3.000000000000    0.000000000000    
0.000000000000    0.000000000000    3.000000000000    

ATOMIC_POSITIONS
Direct

Si
0.0
216
0 0 0 1 1 1
0.083333333333	0.083333333333	0.083333333333 1 1 1
0.166666666667	0.166666666667	0.000000000000 1 1 1
0.250000000000	0.250000000000	0.083333333333 1 1 1
0.166666666667	0.000000000000	0.166666666667 1 1 1
0.250000000000	0.083333333333	0.250000000000 1 1 1
0.000000000000	0.166666666667	0.166666666667 1 1 1
0.083333333333	0.250000000000	0.250000000000 1 1 1
0.000000000000	0.000000000000	0.333333333333 1 1 1
0.083333333333	0.083333333333	0.416666666667 1 1 1
0.166666666667	0.166666666667	0.333333333333 1 1 1
0.250000000000	0.250000000000	0.416666666667 1 1 1
0.166666666667	0.000000000000	0.500000000000 1 1 1
0.250000000000	0.083333333333	0.583333333333 1 1 1
0.000000000000	0.166666666667	0.500000000000 1 1 1
0.083333333333	0.250000000000	0.583333333333 1 1 1
0.000000000000	0.000000000000	0.666666666667 1 1 1
0.083333333333	0.083333333333	0.750000000000 1 1 1
0.166666666667	0.166666666667	0.666666666667 1 1 1
0.250000000000	0.250000000000	0.750000000000 1 1 1
0.166666666667	0.000000000000	0.833333333333 1 1 1
0.250000000000	0.083333333333	0.916666666667 1 1 1
0.000000000000	0.166666666667	0.833333333333 1 1 1
0.083333333333	0.250000000000	0.916666666667 1 1 1
0.000000000000	0.333333333333	0.000000000000 1 1 1
0.083333333333	0.416666666667	0.083333333333 1 1 1
0.166666666667	0.500000000000	0.000000000000 1 1 1
0.250000000000	0.583333333333	0.083333333333 1 1 1
0.166666666667	0.333333333333	0.166666666667 1 1 1
0.250000000000	0.416666666667	0.250000000000 1 1 1
0.000000000000	0.500000000000	0.166666666667 1 1 1
0.083333333333	0.583333333333	0.250000000000 1 1 1
0.000000000000	0.333333333333	0.333333333333 1 1 1
0.083333333333	0.416666666667	0.416666666667 1 1 1
0.166666666667	0.500000000000	0.333333333333 1 1 1
0.250000000000	0.583333333333	0.416666666667 1 1 1
0.166666666667	0.333333333333	0.500000000000 1 1 1
0.250000000000	0.416666666667	0.583333333333 1 1 1
0.000000000000	0.500000000000	0.500000000000 1 1 1
0.083333333333	0.583333333333	0.583333333333 1 1 1
0.000000000000	0.333333333333	0.666666666667 1 1 1
0.083333333333	0.416666666667	0.750000000000 1 1 1
0.166666666667	0.500000000000	0.666666666667 1 1 1
0.250000000000	0.583333333333	0.750000000000 1 1 1
0.166666666667	0.333333333333	0.833333333333 1 1 1
0.250000000000	0.416666666667	0.916666666667 1 1 1
0.000000000000	0.500000000000	0.833333333333 1 1 1
0.083333333333	0.583333333333	0.916666666667 1 1 1
0.000000000000	0.666666666667	0.000000000000 1 1 1
0.083333333333	0.750000000000	0.083333333333 1 1 1
0.166666666667	0.833333333333	0.000000000000 1 1 1
0.250000000000	0.916666666667	0.083333333333 1 1 1
0.166666666667	0.666666666667	0.166666666667 1 1 1
0.250000000000	0.750000000000	0.250000000000 1 1 1
0.000000000000	0.833333333333	0.166666666667 1 1 1
0.083333333333	0.916666666667	0.250000000000 1 1 1
0.000000000000	0.666666666667	0.333333333333 1 1 1
0.083333333333	0.750000000000	0.416666666667 1 1 1
0.166666666667	0.833333333333	0.333333333333 1 1 1
0.250000000000	0.916666666667	0.416666666667 1 1 1
0.166666666667	0.666666666667	0.500000000000 1 1 1
0.250000000000	0.750000000000	0.583333333333 1 1 1
0.000000000000	0.833333333333	0.500000000000 1 1 1
0.083333333333	0.916666666667	0.583333333333 1 1 1
0.000000000000	0.666666666667	0.666666666667 1 1 1
0.083333333333	0.750000000000	0.750000000000 1 1 1
0.166666666667	0.833333333333	0.666666666667 1 1 1
0.250000000000	0.916666666667	0.750000000000 1 1 1
0.166666666667	0.666666666667	0.833333333333 1 1 1
0.250000000000	0.750000000000	0.916666666667 1 1 1
0.000000000000	0.833333333333	0.833333333333 1 1 1
0.083333333333	0.916666666667	0.916666666667 1 1 1
0.333333333333	0.000000000000	0.000000000000 1 1 1
0.416666666667	0.083333333333	0.083333333333 1 1 1
0.500000000000	0.166666666667	0.000000000000 1 1 1
0.583333333333	0.250000000000	0.083333333333 1 1 1
0.500000000000	0.000000000000	0.166666666667 1 1 1
0.583333333333	0.083333333333	0.250000000000 1 1 1
0.333333333333	0.166666666667	0.166666666667 1 1 1
0.416666666667	0.250000000000	0.250000000000 1 1 1
0.333333333333	0.000000000000	0.333333333333 1 1 1
0.416666666667	0.083333333333	0.416666666667 1 1 1
0.500000000000	0.166666666667	0.333333333333 1 1 1
0.583333333333	0.250000000000	0.416666666667 1 1 1
0.500000000000	0.000000000000	0.500000000000 1 1 1
0.583333333333	0.083333333333	0.583333333333 1 1 1
0.333333333333	0.166666666667	0.500000000000 1 1 1
0.416666666667	0.250000000000	0.583333333333 1 1 1
0.333333333333	0.000000000000	0.666666666667 1 1 1
0.416666666667	0.083333333333	0.750000000000 1 1 1
0.500000000000	0.166666666667	0.666666666667 1 1 1
0.583333333333	0.250000000000	0.750000000000 1 1 1
0.500000000000	0.000000000000	0.833333333333 1 1 1
0.583333333333	0.083333333333	0.916666666667 1 1 1
0.333333333333	0.166666666667	0.833333333333 1 1 1
0.416666666667	0.250000000000	0.916666666667 1 1 1
0.333333333333	0.333333333333	0.000000000000 1 1 1
0.416666666667	0.416666666667	0.083333333333 1 1 1
0.500000000000	0.500000000000	0.000000000000 1 1 1
0.583333333333	0.583333333333	0.083333333333 1 1 1
0.500000000000	0.333333333333	0.166666666667 1 1 1
0.583333333333	0.416666666667	0.250000000000 1 1 1
0.333333333333	0.500000000000	0.166666666667 1 1 1
0.416666666667	0.583333333333	0.250000000000 1 1 1
0.333333333333	0.333333333333	0.333333333333 1 1 1
0.416666666667	0.416666666667	0.416666666667 1 1 1
0.500000000000	0.500000000000	0.333333333333 1 1 1
0.583333333333	0.583333333333	0.416666666667 1 1 1
0.500000000000	0.333333333333	0.500000000000 1 1 1
0.583333333333	0.416666666667	0.583333333333 1 1 1
0.333333333333	0.500000000000	0.500000000000 1 1 1
0.416666666667	0.583333333333	0.583333333333 1 1 1
0.333333333333	0.333333333333	0.666666666667 1 1 1
0.416666666667	0.416666666667	0.750000000000 1 1 1
0.500000000000	0.500000000000	0.666666666667 1 1 1
0.583333333333	0.583333333333	0.750000000000 1 1 1
0.500000000000	0.333333333333	0.833333333333 1 1 1
0.583333333333	0.416666666667	0.916666666667 1 1 1
0.333333333333	0.500000000000	0.833333333333 1 1 1
0.416666666667	0.583333333333	0.916666666667 1 1 1
0.333333333333	0.666666666667	0.000000000000 1 1 1
0.416666666667	0.750000000000	0.083333333333 1 1 1
0.500000000000	0.833333333333	0.000000000000 1 1 1
0.583333333333	0.916666666667	0.083333333333 1 1 1
0.500000000000	0.666666666667	0.166666666667 1 1 1
0.583333333333	0.750000000000	0.250000000000 1 1 1
0.333333333333	0.833333333333	0.166666666667 1 1 1
0.416666666667	0.916666666667	0.250000000000 1 1 1
0.333333333333	0.666666666667	0.333333333333 1 1 1
0.416666666667	0.750000000000	0.416666666667 1 1 1
0.500000000000	0.833333333333	0.333333333333 1 1 1
0.583333333333	0.916666666667	0.416666666667 1 1 1
0.500000000000	0.666666666667	0.500000000000 1 1 1
0.583333333333	0.750000000000	0.583333333333 1 1 1
0.333333333333	0.833333333333	0.500000000000 1 1 1
0.416666666667	0.916666666667	0.583333333333 1 1 1
0.333333333333	0.666666666667	0.666666666667 1 1 1
0.416666666667	0.750000000000	0.750000000000 1 1 1
0.500000000000	0.833333333333	0.666666666667 1 1 1
0.583333333333	0.916666666667	0.750000000000 1 1 1
0.500000000000	0.666666666667	0.833333333333 1 1 1
0.583333333333	0.750000000000	0.916666666667 1 1 1
0.333333333333	0.833333333333	0.833333333333 1 1 1
0.416666666667	0.916666666667	0.916666666667 1 1 1
0.666666666667	0.000000000000	0.000000000000 1 1 1
0.750000000000	0.083333333333	0.083333333333 1 1 1
0.833333333333	0.166666666667	0.000000000000 1 1 1
0.916666666667	0.250000000000	0.083333333333 1 1 1
0.833333333333	0.000000000000	0.166666666667 1 1 1
0.916666666667	0.083333333333	0.250000000000 1 1 1
0.666666666667	0.166666666667	0.166666666667 1 1 1
0.750000000000	0.250000000000	0.250000000000 1 1 1
0.666666666667	0.000000000000	0.333333333333 1 1 1
0.750000000000	0.083333333333	0.416666666667 1 1 1
0.833333333333	0.166666666667	0.333333333333 1 1 1
0.916666666667	0.250000000000	0.416666666667 1 1 1
0.833333333333	0.000000000000	0.500000000000 1 1 1
0.916666666667	0.083333333333	0.583333333333 1 1 1
0.666666666667	0.166666666667	0.500000000000 1 1 1
0.750000000000	0.250000000000	0.583333333333 1 1 1
0.666666666667	0.000000000000	0.666666666667 1 1 1
0.750000000000	0.083333333333	0.750000000000 1 1 1
0.833333333333	0.166666666667	0.666666666667 1 1 1
0.916666666667	0.250000000000	0.750000000000 1 1 1
0.833333333333	0.000000000000	0.833333333333 1 1 1
0.916666666667	0.083333333333	0.916666666667 1 1 1
0.666666666667	0.166666666667	0.833333333333 1 1 1
0.750000000000	0.250000000000	0.916666666667 1 1 1
0.666666666667	0.333333333333	0.000000000000 1 1 1
0.750000000000	0.416666666667	0.083333333333 1 1 1
0.833333333333	0.500000000000	0.000000000000 1 1 1
0.916666666667	0.583333333333	0.083333333333 1 1 1
0.833333333333	0.333333333333	0.166666666667 1 1 1
0.916666666667	0.416666666667	0.250000000000 1 1 1
0.666666666667	0.500000000000	0.166666666667 1 1 1
0.750000000000	0.583333333333	0.250000000000 1 1 1
0.666666666667	0.333333333333	0.333333333333 1 1 1
0.750000000000	0.416666666667	0.416666666667 1 1 1
0.833333333333	0.500000000000	0.333333333333 1 1 1
0.916666666667	0.583333333333	0.416666666667 1 1 1
0.833333333333	0.333333333333	0.500000000000 1 1 1
0.916666666667	0.416666666667	0.583333333333 1 1 1
0.666666666667	0.500000000000	0.500000000000 1 1 1
0.750000000000	0.583333333333	0.583333333333 1 1 1
0.666666666667	0.333333333333	0.666666666667 1 1 1
0.750000000000	0.416666666667	0.750000000000 1 1 1
0.833333333333	0.500000000000	0.666666666667 1 1 1
0.916666666667	0.583333333333	0.750000000000 1 1 1
0.833333333333	0.333333333333	0.833333333333 1 1 1
0.916666666667	0.416666666667	0.916666666667 1 1 1
0.666666666667	0.500000000000	0.833333333333 1 1 1
0.750000000000	0.583333333333	0.916666666667 1 1 1
0.666666666667	0.666666666667	0.000000000000 1 1 1
0.750000000000	0.750000000000	0.083333333333 1 1 1
0.833333333333	0.833333333333	0.000000000000 1 1 1
0.916666666667	0.916666666667	0.083333333333 1 1 1
0.833333333333	0.666666666667	0.166666666667 1 1 1
0.916666666667	0.750000000000	0.250000000000 1 1 1
0.666666666667	0.833333333333	0.166666666667 1 1 1
0.750000000000	0.916666666667	0.250000000000 1 1 1
0.666666666667	0.666666666667	0.333333333333 1 1 1
0.750000000000	0.750000000000	0.416666666667 1 1 1
0.833333333333	0.833333333333	0.333333333333 1 1 1
0.916666666667	0.916666666667	0.416666666667 1 1 1
0.833333333333	0.666666666667	0.500000000000 1 1 1
0.916666666667	0.750000000000	0.583333333333 1 1 1
0.666666666667	0.833333333333	0.500000000000 1 1 1
0.750000000000	0.916666666667	0.583333333333 1 1 1
0.666666666667	0.666666666667	0.666666666667 1 1 1
0.750000000000	0.750000000000	0.750000000000 1 1 1
0.833333333333	0.833333333333	0.666666666667 1 1 1
0.916666666667	0.916666666667	0.750000000000 1 1 1
0.833333333333	0.666666666667	0.833333333333 1 1 1
0.916666666667	0.750000000000	0.916666666667 1 1 1
0.666666666667	0.833333333333	0.833333333333 1 1 1
0.750000000000	0.916666666667	0.916666666667 1 1 1
