%BLOCK LATTICE_CART
5.40835206773660193136 0 0
0 5.40835206773660193136 0
0 0 5.40835206773660193136
%END BLOCK LATTICE_CART
%BLOCK POSITIONS_FRAC
Si    0.5 0.5 0.0
Si    0.5 0.0 0.5
Si    0.0 0.5 0.5
Si    0.25 0.25 0.25
Si    0.75 0.75 0.25
Si    0.75 0.25 0.75
Si    0.25 0.75 0.75
%END BLOCK POSITIONS_FRAC
%BLOCK SPECIES_POT
Si si.lda.recpot 
%END BLOCK SPECIES_POT


