%BLOCK LATTICE_CART
   2.828739581100000   0.000000000000000   0.000000000000000
   1.414369790550000   2.449760337923151   0.000000000000000
   0.000000000000003   0.000000000000002  46.256082134391846
%END BLOCK LATTICE_CART
%BLOCK POSITIONS_FRAC
    Al   0.000000000000000   0.000000000000000   0.999941469000180
    Al   0.333333333300000   0.333333333300000   0.049896618255702
    Al   0.666666666700000   0.666666666700000   0.099841147045507
    Al   0.000000000000000   0.000000000000000   0.149785444284690
    Al   0.333333333300000   0.333333333300000   0.199651045400260
    Al   0.933333333300000   0.933333333300000   0.250353209105219
    Al   0.266666666700000   0.266666666700000   0.300219366015912
    Al   0.600000000000000   0.600000000000000   0.350162581348311
    Al   0.933333333300000   0.933333333300000   0.400102504298610
    Al   0.266666666700000   0.266666666700000   0.449999942116505
    Al   0.933333333300000   0.933333333300000   0.499897462011824
    Al   0.600000000000000   0.600000000000000   0.549837489465471
    Al   0.266666666700000   0.266666666700000   0.599780679039375
    Al   0.933333333300000   0.933333333300000   0.649646715665185
    Al   0.333333333300000   0.333333333300000   0.700348845029275
    Al   0.000000000000000   0.000000000000000   0.750214531758432
    Al   0.666666666700000   0.666666666700000   0.800158976628260
    Al   0.333333333300000   0.333333333300000   0.850103545697499
    Al   1.000000000000000   1.000000000000000   0.900058595172809
    Al   0.666666666700000   0.666666666700000   0.949999991890008
%END BLOCK POSITIONS_FRAC
%BLOCK SPECIES_POT
    Al al.lda.recpot                                                                          
%END BLOCK SPECIES_POT
%BLOCK ION_OPTIMIZATION
           0           0           1
           0           0           1
           0           0           1
           0           0           1
           0           0           1
           0           0           1
           0           0           1
           0           0           1
           0           0           1
           0           0           1
           0           0           1
           0           0           1
           0           0           1
           0           0           1
           0           0           1
           0           0           1
           0           0           1
           0           0           1
           0           0           1
           0           0           1
%END BLOCK ION_OPTIMIZATION
