ATOMIC_SPECIES
Al 13 al.lda.lps

LATTICE_CONSTANT
7.50241114482312  // add lattice constant

LATTICE_VECTORS
0.707106781187    0.000000000000    0.000000000000    
0.353553390593    0.612372435696    0.000000000000    
0.000000000000    0.000000000000    12.701705922172    

ATOMIC_POSITIONS
Direct

Al
0.0
22
    0.000000000000    0.000000000000    0.000000000000 0 0 1
    0.333333333333    0.333333333333    0.045454545455 0 0 1
    0.666666666667    0.666666666667    0.090909090909 0 0 1
    0.000000000000    0.000000000000    0.136363636364 0 0 1
    0.333333333333    0.333333333333    0.181818181818 0 0 1
    0.000000000000    0.000000000000    0.227272727273 0 0 1
    0.466666666667    0.466666666667    0.272727272727 0 0 1
    0.800000000000    0.800000000000    0.318181818182 0 0 1
    0.133333333333    0.133333333333    0.363636363636 0 0 1
    0.466666666667    0.466666666667    0.409090909091 0 0 1
    0.800000000000    0.800000000000    0.454545454545 0 0 1
    0.466666666667    0.466666666667    0.500000000000 0 0 1
    0.133333333333    0.133333333333    0.545454545455 0 0 1
    0.800000000000    0.800000000000    0.590909090909 0 0 1
    0.466666666667    0.466666666667    0.636363636364 0 0 1
    0.000000000000    0.000000000000    0.681818181818 0 0 1
    0.333333333333    0.333333333333    0.727272727273 0 0 1
    0.000000000000    0.000000000000    0.772727272727 0 0 1
    0.666666666667    0.666666666667    0.818181818182 0 0 1
    0.333333333333    0.333333333333    0.863636363636 0 0 1
    0.000000000000    0.000000000000    0.909090909091 0 0 1
    0.666666666667    0.666666666667    0.954545454545 0 0 1
