ATOMIC_SPECIES
In 114.8180 in.gga.psp blps
P  30.9740 p.gga.psp blps

LATTICE_CONSTANT
1.8897259886

LATTICE_VECTORS
        2.0932760525       -3.6256604773        0.0000000000
        2.0932760525        3.6256604773        0.0000000000
        0.0000000000        0.0000000000        6.8716389071

ATOMIC_POSITIONS
Direct

In #label
0.0000   #magnetism
2 #number of atoms
        0.6666666667        0.3333333333        0.5000202520 m 1 1 1
        0.3333333333        0.6666666667        0.0000202520 m 1 1 1

P #label
0.0000   #magnetism
2 #number of atoms
        0.6666666667        0.3333333333        0.8749807480 m 1 1 1
        0.3333333333        0.6666666667        0.3749807480 m 1 1 1
