ATOMIC_SPECIES
In 114.8180 in.gga.psp blps
P  30.9740 p.gga.psp blps

LATTICE_CONSTANT
1.8897259886

LATTICE_VECTORS
        2.0953859637       -3.6293149507       -0.0000000000
        2.0953859637        3.6293149507       -0.0000000000
       -0.0000000000       -0.0000000000        6.8673002262

ATOMIC_POSITIONS
Direct

In #label
0.0000   #magnetism
2 #number of atoms
        0.6666666667        0.3333333333        0.4985845117 m 1 1 1
        0.3333333333        0.6666666667        0.9985845117 m 1 1 1

P #label
0.0000   #magnetism
2 #number of atoms
        0.6666666667        0.3333333333        0.8764164883 m 1 1 1
        0.3333333333        0.6666666667        0.3764164883 m 1 1 1
