ATOMIC_SPECIES
In 114.8180 in.gga.psp blps
P  30.9740 p.gga.psp blps

LATTICE_CONSTANT
1.8897259886

LATTICE_VECTORS
        2.0953884638       -3.6293192810       -0.0000000000
        2.0953884638        3.6293192810       -0.0000000000
       -0.0000000000        0.0000000000        6.8671665108

ATOMIC_POSITIONS
Direct

In #label
0.0000   #magnetism
2 #number of atoms
        0.6666666667        0.3333333333        0.4985964461 m 1 1 1
        0.3333333333        0.6666666667        0.9985964461 m 1 1 1

P #label
0.0000   #magnetism
2 #number of atoms
        0.6666666667        0.3333333333        0.8764045539 m 1 1 1
        0.3333333333        0.6666666667        0.3764045539 m 1 1 1
