ATOMIC_SPECIES
In 114.8180 in.gga.psp blps
P  30.9740 p.gga.psp blps

LATTICE_CONSTANT
1.8897259886

LATTICE_VECTORS
        2.0953930202       -3.6293271727       -0.0000000000
        2.0953930202        3.6293271727       -0.0000000000
       -0.0000000000        0.0000000000        6.8668860908

ATOMIC_POSITIONS
Direct

In #label
0.0000   #magnetism
2 #number of atoms
        0.6666666667        0.3333333333        0.4986230802 m 1 1 1
        0.3333333333        0.6666666667        0.9986230802 m 1 1 1

P #label
0.0000   #magnetism
2 #number of atoms
        0.6666666667        0.3333333333        0.8763779198 m 1 1 1
        0.3333333333        0.6666666667        0.3763779198 m 1 1 1
