ATOMIC_SPECIES
In 114.8180 in.gga.psp blps
P  30.9740 p.gga.psp blps

LATTICE_CONSTANT
1.8897259886

LATTICE_VECTORS
        2.0953929064       -3.6293269758       -0.0000000000
        2.0953929064        3.6293269758       -0.0000000000
       -0.0000000000        0.0000000000        6.8668934025

ATOMIC_POSITIONS
Direct

In #label
0.0000   #magnetism
2 #number of atoms
        0.6666666667        0.3333333333        0.4986228012 m 1 1 1
        0.3333333333        0.6666666667        0.9986228012 m 1 1 1

P #label
0.0000   #magnetism
2 #number of atoms
        0.6666666667        0.3333333333        0.8763781988 m 1 1 1
        0.3333333333        0.6666666667        0.3763781988 m 1 1 1
