ATOMIC_SPECIES
In 114.8180 in.gga.psp blps
P  30.9740 p.gga.psp blps

LATTICE_CONSTANT
1.8897259886

LATTICE_VECTORS
        2.0953858707       -3.6293147895       -0.0000000000
        2.0953858707        3.6293147895       -0.0000000000
       -0.0000000000       -0.0000000000        6.8673074565

ATOMIC_POSITIONS
Direct

In #label
0.0000   #magnetism
2 #number of atoms
        0.6666666667        0.3333333333        0.4985871373 m 1 1 1
        0.3333333333        0.6666666667        0.9985871373 m 1 1 1

P #label
0.0000   #magnetism
2 #number of atoms
        0.6666666667        0.3333333333        0.8764138627 m 1 1 1
        0.3333333333        0.6666666667        0.3764138627 m 1 1 1
