ATOMIC_SPECIES
Al 27 al.lda.lps

LATTICE_CONSTANT
7.50241114482

LATTICE_VECTORS
0.707106781187 0 0 #latvec1
0.353553390593 0.612372435696 0 #latvec2
0 0 12.7017059222 #latvec3

ATOMIC_POSITIONS
Direct

Al #label
0 #magnetism
22 #number of atoms
0 0 0.000148752341054 0 0 1 0 0 0
0.333333333332 0.333333333332 0.0453125324808 0 0 1 0 0 0
0.666666666668 0.666666666668 0.091041718663 0 0 1 0 0 0
0 0 0.136219657089 0 0 1 0 0 0
0.333333333332 0.333333333332 0.181847168023 0 0 1 0 0 0
0 0 0.226947759184 0 0 1 0 0 0
0.566666666668 0.566666666668 0.272975647987 0 0 1 0 0 0
0.9 0.9 0.318254903233 0 0 1 0 0 0
0.233333333334 0.233333333334 0.363594008595 0 0 1 0 0 0
0.566666666668 0.566666666668 0.409006916175 0 0 1 0 0 0
0.9 0.9 0.454531911329 0 0 1 0 0 0
0.566666666668 0.566666666668 0.500057631054 0 0 1 0 0 0
0.233333333334 0.233333333334 0.545474389812 0 0 1 0 0 0
0.9 0.9 0.590818530019 0 0 1 0 0 0
0.566666666668 0.566666666668 0.636104605507 0 0 1 0 0 0
0 0 0.682139752944 0 0 1 0 0 0
0.333333333332 0.333333333332 0.72724734498 0 0 1 0 0 0
0 0 0.772881953557 0 0 1 0 0 0
0.666666666668 0.666666666668 0.818066400378 0 0 1 0 0 0
0.333333333332 0.333333333332 0.863801116386 0 0 1 0 0 0
0 0 0.908968090395 0 0 1 0 0 0
0.666666666668 0.666666666668 0.954559209865 0 0 1 0 0 0
