ATOMIC_SPECIES
C 12 /home/mhchen_pkuhpc/mhchen_cls/lustre2/5_liurenxi/03a01_abacus-lcao-scan/pp/SG15_ONCV_v1.0_upf/C_ONCV_PBE-1.0.upf
H 1 /home/mhchen_pkuhpc/mhchen_cls/lustre2/5_liurenxi/03a01_abacus-lcao-scan/pp/SG15_ONCV_v1.0_upf/H_ONCV_PBE-1.0.upf
H_empty 1 /home/mhchen_pkuhpc/mhchen_cls/lustre2/5_liurenxi/03a01_abacus-lcao-scan/pp/SG15_ONCV_v1.0_upf/H_ONCV_PBE-1.0.upf
N_empty 14 /home/mhchen_pkuhpc/mhchen_cls/lustre2/5_liurenxi/03a01_abacus-lcao-scan/pp/SG15_ONCV_v1.0_upf/N_ONCV_PBE-1.0.upf
C_empty 12 /home/mhchen_pkuhpc/mhchen_cls/lustre2/5_liurenxi/03a01_abacus-lcao-scan/pp/SG15_ONCV_v1.0_upf/C_ONCV_PBE-1.0.upf

LATTICE_CONSTANT
1.8897161646321

LATTICE_VECTORS
20 0 0
0 20 0
0 0 20

NUMERICAL_ORBITAL
/home/mhchen_pkuhpc/mhchen_cls/lustre2/5_liurenxi/03a01_abacus-lcao-scan/orb/Orb_DZP_E100_Full/C/C_gga_10au_100Ry_2s2p1d.orb
/home/mhchen_pkuhpc/mhchen_cls/lustre2/5_liurenxi/03a01_abacus-lcao-scan/orb/Orb_DZP_E100_Full/H/H_gga_10au_100Ry_2s1p.orb
/home/mhchen_pkuhpc/mhchen_cls/lustre2/5_liurenxi/03a01_abacus-lcao-scan/orb/Orb_DZP_E100_Full/H/H_gga_10au_100Ry_2s1p.orb
/home/mhchen_pkuhpc/mhchen_cls/lustre2/5_liurenxi/03a01_abacus-lcao-scan/orb/Orb_DZP_E100_Full/N/N_gga_10au_100Ry_2s2p1d.orb
/home/mhchen_pkuhpc/mhchen_cls/lustre2/5_liurenxi/03a01_abacus-lcao-scan/orb/Orb_DZP_E100_Full/C/C_gga_10au_100Ry_2s2p1d.orb

ATOMIC_POSITIONS
Cartesian    # Cartesian(Unit is LATTICE_CONSTANT)
C
0.0
6
2.511900 1.625015 0.000000 m 0 0 0 
2.713009 0.957854 -1.208292 m 0 0 0 
3.117782 -0.376744 -1.208365 m 0 0 0 
3.321385 -1.043731 0.000000 m 0 0 0 
3.117782 -0.376744 1.208365 m 0 0 0 
2.713009 0.957854 1.208292 m 0 0 0 
H
0.0
6
2.202404 2.661136 0.000000 m 0 0 0 
2.551176 1.473691 -2.144590 m 0 0 0 
3.270300 -0.895141 -2.144838 m 0 0 0 
3.636814 -2.078152 0.000000 m 0 0 0 
3.270300 -0.895141 2.144838 m 0 0 0 
2.551176 1.473691 2.144590 m 0 0 0 
H_empty
0.0
7
0.806524 -0.435887 0.000000 m 0 0 0 
0.231002 -2.865317 0.000000 m 0 0 0 
-2.458576 -3.095605 0.000000 m 0 0 0 
-0.518873 2.053952 0.000000 m 0 0 0 
-2.807757 3.009786 0.000000 m 0 0 0 
-4.790599 1.543937 0.000000 m 0 0 0 
-4.558019 -0.914292 0.000000 m 0 0 0 
N_empty
0.0
1
-0.144241 -0.768693 0.000000 m 0 0 0 
C_empty
0.0
8
-0.516112 -2.089322 0.000000 m 0 0 0 
-1.889876 -2.181449 0.000000 m 0 0 0 
-2.393232 -0.847083 0.000000 m 0 0 0 
-1.264065 0.019589 0.000000 m 0 0 0 
-1.389600 1.411767 0.000000 m 0 0 0 
-2.672650 1.936645 0.000000 m 0 0 0 
-3.805451 1.097479 0.000000 m 0 0 0 
-3.679817 -0.281721 0.000000 m 0 0 0 
