%BLOCK LATTICE_CART
2.845324336150    0.000000000000    0.000000000000    
-1.422662168075    2.464123157112    0.000000000000    
0.000000000000    0.000000000000    4.668959713991    
%END BLOCK LATTICE_CART
%BLOCK POSITIONS_FRAC
Al    0.000000000000    0.000000000000    0.000000000000
Al    0.666666666667    0.333333333333    0.500000000000
%END BLOCK POSITIONS_FRAC
%BLOCK SPECIES_POT
Al al.gga.recpot
%END BLOCK SPECIES_POT
