%BLOCK LATTICE_CART
2.527681180871    0.000000000000    0.000000000000    
-1.263840590436    2.189036115302    0.000000000000    
0.000000000000    0.000000000000    4.147731579617    
%END BLOCK LATTICE_CART
%BLOCK POSITIONS_FRAC
al    0.000000000000    0.000000000000    0.000000000000
al    0.666666666667    0.333333333333    0.500000000000
%END BLOCK POSITIONS_FRAC
%BLOCK SPECIES_POT
Al al_HC.lda.recpot
%END BLOCK SPECIES_POT
