ATOMIC_SPECIES
Al 26.981539 Al_ONCV_PBE-1.2.upf

LATTICE_CONSTANT
7.4984327225523  // add lattice constant

LATTICE_VECTORS
0.707106781187    0.000000000000    0.000000000000    
0.353553390593    0.612372435696    0.000000000000    
0.000000000000    0.000000000000    12.701705922171765

ATOMIC_POSITIONS
Direct

Al
0.0
22
    -3.2417411920E-31 -3.9087635290E-31  1.9913566481E-04 1 1 1
     3.3333333330E-01  3.3333333330E-01  4.5397050609E-02 1 1 1
     6.6666666670E-01  6.6666666670E-01  9.0952596400E-02 1 1 1
    -3.1087902078E-31 -3.7758125448E-31  1.3620251512E-01 1 1 1
     3.3333333330E-01  3.3333333330E-01  1.8182985208E-01 1 1 1
    -3.1049795599E-31 -3.7720018970E-31  2.2723767016E-01 1 1 1
     6.3333333330E-01  6.3333333330E-01  2.7277822322E-01 1 1 1
     9.6666666670E-01  9.6666666670E-01  3.1835754936E-01 1 1 1
     3.0000000000E-01  3.0000000000E-01  3.6365358438E-01 1 1 1
     6.3333333330E-01  6.3333333330E-01  4.0889688203E-01 1 1 1
     9.6666666670E-01  9.6666666670E-01  4.5454545455E-01 1 1 1
     6.3333333330E-01  6.3333333330E-01  5.0019402707E-01 1 1 1
     3.0000000000E-01  3.0000000000E-01  5.4543732472E-01 1 1 1
     9.6666666670E-01  9.6666666670E-01  5.9073335974E-01 1 1 1
     6.3333333330E-01  6.3333333330E-01  6.3631268588E-01 1 1 1
    -3.1049795599E-31 -3.7720018970E-31  6.8185323894E-01 1 1 1
     3.3333333330E-01  3.3333333330E-01  7.2726105702E-01 1 1 1
    -3.1087902078E-31 -3.7758125448E-31  7.7288839398E-01 1 1 1
     6.6666666670E-01  6.6666666670E-01  8.1813831270E-01 1 1 1
     3.3333333330E-01  3.3333333330E-01  8.6369385849E-01 1 1 1
    -3.2417411920E-31 -3.9087635290E-31  9.0889177344E-01 1 1 1
     6.6666666670E-01  6.6666666670E-01  9.5454545455E-01 1 1 1
