ATOMIC_SPECIES
Al 26.981539 al.lda.lps

LATTICE_CONSTANT
7.50241114482312  // add lattice constant

LATTICE_VECTORS
0.707106781187    0.000000000000    0.000000000000    
0.353553390593    0.612372435696    0.000000000000    
0.000000000000    0.000000000000    11.547005383792515

ATOMIC_POSITIONS
Direct

Al
0.0
20
    1.3817461826E-30  1.3817461826E-30  1.3297852063E-04 1 1 1
    3.3333333330E-01  3.3333333330E-01  4.9858348830E-02 1 1 1
    6.6666666670E-01  6.6666666670E-01  9.9866231205E-02 1 1 1
    1.3174160013E-30  1.3174160013E-30  1.4963536502E-01 1 1 1
    3.3333333330E-01  3.3333333330E-01  1.9955410459E-01 1 1 1
    9.0000000000E-01  9.0000000000E-01  2.5056056306E-01 1 1 1
    2.3333333330E-01  2.3333333330E-01  3.0037707733E-01 1 1 1
    5.6666666670E-01  5.6666666670E-01  3.5021839470E-01 1 1 1
    9.0000000000E-01  9.0000000000E-01  3.9995232012E-01 1 1 1
    2.3333333330E-01  2.3333333330E-01  4.5000000000E-01 1 1 1
    9.0000000000E-01  9.0000000000E-01  5.0004767988E-01 1 1 1
    5.6666666670E-01  5.6666666670E-01  5.4978160530E-01 1 1 1
    2.3333333330E-01  2.3333333330E-01  5.9962292267E-01 1 1 1
    9.0000000000E-01  9.0000000000E-01  6.4943943694E-01 1 1 1
    3.3333333330E-01  3.3333333330E-01  7.0044589541E-01 1 1 1
    1.3174160013E-30  1.3174160013E-30  7.5036463498E-01 1 1 1
    6.6666666670E-01  6.6666666670E-01  8.0013376880E-01 1 1 1
    3.3333333330E-01  3.3333333330E-01  8.5014165117E-01 1 1 1
    1.3817461826E-30  1.3817461826E-30  8.9986702148E-01 1 1 1
    6.6666666670E-01  6.6666666670E-01  9.5000000000E-01 1 1 1
