%BLOCK LATTICE_CART
4.532593051000    0.000000000000    0.000000000000    
0.000000000000    7.845140874200    0.000000000000    
0.000000000000    0.000000000000    7.463971942000    
%END BLOCK LATTICE_CART
%BLOCK POSITIONS_FRAC
In    0.000000000000    0.668118460000    0.488148930000
In    0.000000000000    0.331881540000    0.988148930000
In    0.500000000000    0.168118460000    0.488148930000
In    0.500000000000    0.831881540000    0.988148930000
Sb    0.000000000000    0.665501665000    0.861851070000
Sb    0.000000000000    0.334498335000    0.361851070000
Sb    0.500000000000    0.165501665000    0.861851070000
Sb    0.500000000000    0.834498335000    0.361851070000
%END BLOCK POSITIONS_FRAC
%BLOCK SPECIES_POT
In in.gga.recpot
Sb sb.gga.recpot
%END BLOCK SPECIES_POT
