ATOMIC_SPECIES
Li 6.941 li.gga.psp.1 blps
Mg 24.305 mg.gga.psp blps
Al 26.981 al.gga.psp blps

LATTICE_CONSTANT
1.8897259885789233  // add lattice constant

LATTICE_VECTORS
6.273268000000    0.000000000000    0.000000000000    
0.000000000000    10.840637000000    0.000000000000    
0.000000000000    0.000000000000    5.049700000000    

ATOMIC_POSITIONS
Direct

Li
0.0
2
    0.500000000000    0.169011000000    0.500000000000 1 1 1
    0.000000000000    0.669011000000    0.500000000000 1 1 1
Mg
0.0
12
    0.252023000000    0.084911000000    0.000000000000 1 1 1
    0.747977000000    0.084911000000    0.000000000000 1 1 1
    0.500000000000    0.832794000000    0.000000000000 1 1 1
    0.245495000000    0.914966000000    0.500000000000 1 1 1
    0.754505000000    0.914966000000    0.500000000000 1 1 1
    0.500000000000    0.666273000000    0.500000000000 1 1 1
    0.752023000000    0.584911000000    0.000000000000 1 1 1
    0.247977000000    0.584911000000    0.000000000000 1 1 1
    0.000000000000    0.332794000000    0.000000000000 1 1 1
    0.745495000000    0.414966000000    0.500000000000 1 1 1
    0.254505000000    0.414966000000    0.500000000000 1 1 1
    0.000000000000    0.166273000000    0.500000000000 1 1 1
Al
0.0
2
    0.500000000000    0.332168000000    0.000000000000 1 1 1
    0.000000000000    0.832168000000    0.000000000000 1 1 1
