%BLOCK LATTICE_CART
   2.806843720900000   0.000000000000000   0.000000000000000
   1.403421860450000   2.430797966752238   0.000000000000000
   0.000000000000003   0.000000000000002  45.956821950951543
%END BLOCK LATTICE_CART
%BLOCK POSITIONS_FRAC
    Al   1.000000000000000   1.000000000000000   0.000402736660169
    Al   0.333333333300000   0.333333333300000   0.050172833095885
    Al   0.666666666700000   0.666666666700000   0.099990067013749
    Al   0.000000000000000   0.000000000000000   0.149840464931759
    Al   0.333333333300000   0.333333333300000   0.199537647356751
    Al   0.733333333300000   0.733333333300000   0.250346626170660
    Al   0.066666666700000   0.066666666700000   0.300031357295375
    Al   0.400000000000000   0.400000000000000   0.349925309764246
    Al   0.733333333300000   0.733333333300000   0.399639290087188
    Al   0.066666666700000   0.066666666700000   0.449999951051440
    Al   0.733333333300000   0.733333333300000   0.500360656534749
    Al   0.400000000000000   0.400000000000000   0.550074710450721
    Al   0.066666666700000   0.066666666700000   0.599968663983154
    Al   0.733333333300000   0.733333333300000   0.649653321859310
    Al   0.333333333300000   0.333333333300000   0.700462276375686
    Al   1.000000000000000   1.000000000000000   0.750159489081148
    Al   0.666666666700000   0.666666666700000   0.800009960286602
    Al   0.333333333300000   0.333333333300000   0.849827183810152
    Al   0.000000000000000   0.000000000000000   0.899597204131515
    Al   0.666666666700000   0.666666666700000   0.949999946761613
%END BLOCK POSITIONS_FRAC
%BLOCK SPECIES_POT
    Al al.lda.recpot                                                                          
%END BLOCK SPECIES_POT
%BLOCK ION_OPTIMIZATION
           0           0           1
           0           0           1
           0           0           1
           0           0           1
           0           0           1
           0           0           1
           0           0           1
           0           0           1
           0           0           1
           0           0           1
           0           0           1
           0           0           1
           0           0           1
           0           0           1
           0           0           1
           0           0           1
           0           0           1
           0           0           1
           0           0           1
           0           0           1
%END BLOCK ION_OPTIMIZATION
