%BLOCK LATTICE_CART
3.000126330000    0.000000000000    0.000000000000    
0.000000000000    3.000126330000    0.000000000000    
0.000000000000    0.000000000000    4.176459360000    
%END BLOCK LATTICE_CART
%BLOCK POSITIONS_FRAC
Mg    0.500000000000    0.500000000000    0.500000000000
Al    0.000000000000    0.000000000000    0.000000000000
%END BLOCK POSITIONS_FRAC
%BLOCK SPECIES_POT
Mg mg.gga.recpot
Al al.gga.recpot
%END BLOCK SPECIES_POT
