%BLOCK LATTICE_CART
  -0.001122605631151   2.216268779731408   2.216268776535804
   2.216268780888742  -0.001122606853140   2.216268778913260
   2.216268780992625   2.216268782212748  -0.001122603663840
%END BLOCK LATTICE_CART
%BLOCK POSITIONS_FRAC
    Mg   0.000000000000000   0.000000000000000   0.000000000000000
%END BLOCK POSITIONS_FRAC
%BLOCK SPECIES_POT
    Mg mg.lda.recpot                                                                          
%END BLOCK SPECIES_POT
