ATOMIC_SPECIES
Li 6.941 li.gga.psp.1 blps
Mg 24.305 mg.gga.psp blps

LATTICE_CONSTANT
1.8897259885789233  // add lattice constant

LATTICE_VECTORS
3.096177320000    0.000000000000    0.000000000000    
0.000000000000    5.268643600000    0.000000000000    
0.000000000000    0.000000000000    9.980439240000    

ATOMIC_POSITIONS
Direct

Li
0.0
6
    0.500000000000    0.165836530000    0.000000000000 1 1 1
    0.500000000000    0.502214290000    0.249735070000 1 1 1
    0.000000000000    0.002214290000    0.250264930000 1 1 1
    0.000000000000    0.665836530000    0.500000000000 1 1 1
    0.000000000000    0.002214290000    0.749735070000 1 1 1
    0.500000000000    0.502214290000    0.750264930000 1 1 1
Mg
0.0
2
    0.000000000000    0.663067880000    0.000000000000 1 1 1
    0.500000000000    0.163067880000    0.500000000000 1 1 1
