%BLOCK LATTICE_CART
0.000000000000    2.753331663999    2.753331663999    
2.753331663999    0.000000000000    2.753331663999    
2.753331663999    2.753331663999    0.000000000000    
%END BLOCK LATTICE_CART
%BLOCK POSITIONS_FRAC
Ga    0.000000000000    0.000000000000    0.000000000000
P    0.250000000000    0.250000000000    0.250000000000
%END BLOCK POSITIONS_FRAC
%BLOCK SPECIES_POT
Ga ga.gga.recpot
P p.gga.recpot
%END BLOCK SPECIES_POT
