INPUT_PARAMETERS
#Parameters (1.General)
suffix			blpstest
calculation     scf
ntype			2
nbands			30
symmetry		1
pseudo_dir      /home/dell/2_software/qe-6.6/pseudo/sg15_oncv_upf_2020-02-06

#Parameters (2.Iteration)
ecutwfc			45
#dr2				1e-6
scf_nmax		100


#Parameters (3.Basis)
basis_type		pw

#Parameters (4.Smearing)
smearing_method		gauss
smearing_sigma			0.0074

#Parameters (5.Mixing)
mixing_type		pulay
mixing_beta		0.7
