%BLOCK LATTICE_CART
   2.805799707700000   0.000000000000000   0.000000000000000
   1.402899853850000   2.429893824799152   0.000000000000000
   0.000000000000003   0.000000000000002  45.972403438588735
%END BLOCK LATTICE_CART
%BLOCK POSITIONS_FRAC
    Al   0.000000000000000   0.000000000000000   0.000059122297753
    Al   0.333333333300000   0.333333333300000   0.049877359801932
    Al   0.666666666700000   0.666666666700000   0.099670436188009
    Al   0.000000000000000   0.000000000000000   0.149504798512783
    Al   0.333333333300000   0.333333333300000   0.199449405898022
    Al   0.766666666700000   0.766666666700000   0.250547724422413
    Al   0.100000000000000   0.100000000000000   0.300444460365800
    Al   0.433333333300000   0.433333333300000   0.350199657767347
    Al   0.766666666700000   0.766666666700000   0.399972435346300
    Al   0.100000000000000   0.100000000000000   0.450000098054405
    Al   0.766666666700000   0.766666666700000   0.500027776714554
    Al   0.433333333300000   0.433333333300000   0.549800543103549
    Al   0.100000000000000   0.100000000000000   0.599555668813191
    Al   0.766666666700000   0.766666666700000   0.649452297781477
    Al   0.333333333300000   0.333333333300000   0.700550534398431
    Al   1.000000000000000   1.000000000000000   0.750495094763034
    Al   0.666666666700000   0.666666666700000   0.800329450125107
    Al   0.333333333300000   0.333333333300000   0.850122506281154
    Al   0.000000000000000   0.000000000000000   0.899940693735662
    Al   0.666666666700000   0.666666666700000   0.949999889839101
%END BLOCK POSITIONS_FRAC
%BLOCK SPECIES_POT
    Al al_HC.lda.recpot                                                                       
%END BLOCK SPECIES_POT
%BLOCK ION_OPTIMIZATION
           0           0           1
           0           0           1
           0           0           1
           0           0           1
           0           0           1
           0           0           1
           0           0           1
           0           0           1
           0           0           1
           0           0           1
           0           0           1
           0           0           1
           0           0           1
           0           0           1
           0           0           1
           0           0           1
           0           0           1
           0           0           1
           0           0           1
           0           0           1
%END BLOCK ION_OPTIMIZATION
