%BLOCK LATTICE_CART
2.8057997077482204 0 0
0 2.8057997077482204 0
0 0 23.808
%END BLOCK LATTICE_CART
%BLOCK POSITIONS_FRAC
Al 0.000000000000    0.000000000000    0.000000000000
Al 0.500000000000    0.500000000000    0.083333333333
Al 0.000000000000    0.000000000000    0.166666666667
Al 0.500000000000    0.500000000000    0.250000000000
Al 0.000000000000    0.000000000000    0.333333333333
Al 0.500000000000    0.500000000000    0.416666666667
Al 0.000000000000    0.000000000000    0.500000000000
%END BLOCK POSITIONS_FRAC
%BLOCK SPECIES_POT
Al al_HC.lda.recpot
%END BLOCK SPECIES_POT

