ATOMIC_SPECIES
Ga 69.723 ga.gga.psp blps
As 74.922 as.gga.psp blps

LATTICE_CONSTANT
1.8843474638378146  // add lattice constant

LATTICE_VECTORS
1.996795221595    -3.458550776113    0.000000000000    
1.996795221595    3.458550776113    0.000000000000    
0.000000000000    0.000000000000    6.586109190000    

ATOMIC_POSITIONS
Direct

Ga
0.0
2
    0.333333333333    0.666666666667    0.999984100000 1 1 1
    0.666666666667    0.333333333333    0.499984100000 1 1 1
As
0.0
2
    0.333333333333    0.666666666667    0.374015900000 1 1 1
    0.666666666667    0.333333333333    0.874015900000 1 1 1
