%BLOCK LATTICE_CART
19.847382288027    0.000000000000    0.000000000000    
0.000000000000    19.847382288027    0.000000000000    
0.000000000000    0.000000000000    19.847382288027    
%END BLOCK LATTICE_CART
%BLOCK POSITIONS_FRAC
Al    0.100000000000    0.100000000000    0.000000000000
Al    0.100000000000    0.000000000000    0.100000000000
Al    0.000000000000    0.100000000000    0.100000000000
Al    0.000000000000    0.000000000000    0.200000000000
Al    0.100000000000    0.100000000000    0.200000000000
Al    0.100000000000    0.000000000000    0.300000000000
Al    0.000000000000    0.100000000000    0.300000000000
Al    0.000000000000    0.000000000000    0.400000000000
Al    0.100000000000    0.100000000000    0.400000000000
Al    0.100000000000    0.000000000000    0.500000000000
Al    0.000000000000    0.100000000000    0.500000000000
Al    0.000000000000    0.000000000000    0.600000000000
Al    0.100000000000    0.100000000000    0.600000000000
Al    0.100000000000    0.000000000000    0.700000000000
Al    0.000000000000    0.100000000000    0.700000000000
Al    0.000000000000    0.000000000000    0.800000000000
Al    0.100000000000    0.100000000000    0.800000000000
Al    0.100000000000    0.000000000000    0.900000000000
Al    0.000000000000    0.100000000000    0.900000000000
Al    0.000000000000    0.200000000000    0.000000000000
Al    0.100000000000    0.300000000000    0.000000000000
Al    0.100000000000    0.200000000000    0.100000000000
Al    0.000000000000    0.300000000000    0.100000000000
Al    0.000000000000    0.200000000000    0.200000000000
Al    0.100000000000    0.300000000000    0.200000000000
Al    0.100000000000    0.200000000000    0.300000000000
Al    0.000000000000    0.300000000000    0.300000000000
Al    0.000000000000    0.200000000000    0.400000000000
Al    0.100000000000    0.300000000000    0.400000000000
Al    0.100000000000    0.200000000000    0.500000000000
Al    0.000000000000    0.300000000000    0.500000000000
Al    0.000000000000    0.200000000000    0.600000000000
Al    0.100000000000    0.300000000000    0.600000000000
Al    0.100000000000    0.200000000000    0.700000000000
Al    0.000000000000    0.300000000000    0.700000000000
Al    0.000000000000    0.200000000000    0.800000000000
Al    0.100000000000    0.300000000000    0.800000000000
Al    0.100000000000    0.200000000000    0.900000000000
Al    0.000000000000    0.300000000000    0.900000000000
Al    0.000000000000    0.400000000000    0.000000000000
Al    0.100000000000    0.500000000000    0.000000000000
Al    0.100000000000    0.400000000000    0.100000000000
Al    0.000000000000    0.500000000000    0.100000000000
Al    0.000000000000    0.400000000000    0.200000000000
Al    0.100000000000    0.500000000000    0.200000000000
Al    0.100000000000    0.400000000000    0.300000000000
Al    0.000000000000    0.500000000000    0.300000000000
Al    0.000000000000    0.400000000000    0.400000000000
Al    0.100000000000    0.500000000000    0.400000000000
Al    0.100000000000    0.400000000000    0.500000000000
Al    0.000000000000    0.500000000000    0.500000000000
Al    0.000000000000    0.400000000000    0.600000000000
Al    0.100000000000    0.500000000000    0.600000000000
Al    0.100000000000    0.400000000000    0.700000000000
Al    0.000000000000    0.500000000000    0.700000000000
Al    0.000000000000    0.400000000000    0.800000000000
Al    0.100000000000    0.500000000000    0.800000000000
Al    0.100000000000    0.400000000000    0.900000000000
Al    0.000000000000    0.500000000000    0.900000000000
Al    0.000000000000    0.600000000000    0.000000000000
Al    0.100000000000    0.700000000000    0.000000000000
Al    0.100000000000    0.600000000000    0.100000000000
Al    0.000000000000    0.700000000000    0.100000000000
Al    0.000000000000    0.600000000000    0.200000000000
Al    0.100000000000    0.700000000000    0.200000000000
Al    0.100000000000    0.600000000000    0.300000000000
Al    0.000000000000    0.700000000000    0.300000000000
Al    0.000000000000    0.600000000000    0.400000000000
Al    0.100000000000    0.700000000000    0.400000000000
Al    0.100000000000    0.600000000000    0.500000000000
Al    0.000000000000    0.700000000000    0.500000000000
Al    0.000000000000    0.600000000000    0.600000000000
Al    0.100000000000    0.700000000000    0.600000000000
Al    0.100000000000    0.600000000000    0.700000000000
Al    0.000000000000    0.700000000000    0.700000000000
Al    0.000000000000    0.600000000000    0.800000000000
Al    0.100000000000    0.700000000000    0.800000000000
Al    0.100000000000    0.600000000000    0.900000000000
Al    0.000000000000    0.700000000000    0.900000000000
Al    0.000000000000    0.800000000000    0.000000000000
Al    0.100000000000    0.900000000000    0.000000000000
Al    0.100000000000    0.800000000000    0.100000000000
Al    0.000000000000    0.900000000000    0.100000000000
Al    0.000000000000    0.800000000000    0.200000000000
Al    0.100000000000    0.900000000000    0.200000000000
Al    0.100000000000    0.800000000000    0.300000000000
Al    0.000000000000    0.900000000000    0.300000000000
Al    0.000000000000    0.800000000000    0.400000000000
Al    0.100000000000    0.900000000000    0.400000000000
Al    0.100000000000    0.800000000000    0.500000000000
Al    0.000000000000    0.900000000000    0.500000000000
Al    0.000000000000    0.800000000000    0.600000000000
Al    0.100000000000    0.900000000000    0.600000000000
Al    0.100000000000    0.800000000000    0.700000000000
Al    0.000000000000    0.900000000000    0.700000000000
Al    0.000000000000    0.800000000000    0.800000000000
Al    0.100000000000    0.900000000000    0.800000000000
Al    0.100000000000    0.800000000000    0.900000000000
Al    0.000000000000    0.900000000000    0.900000000000
Al    0.200000000000    0.000000000000    0.000000000000
Al    0.300000000000    0.100000000000    0.000000000000
Al    0.300000000000    0.000000000000    0.100000000000
Al    0.200000000000    0.100000000000    0.100000000000
Al    0.200000000000    0.000000000000    0.200000000000
Al    0.300000000000    0.100000000000    0.200000000000
Al    0.300000000000    0.000000000000    0.300000000000
Al    0.200000000000    0.100000000000    0.300000000000
Al    0.200000000000    0.000000000000    0.400000000000
Al    0.300000000000    0.100000000000    0.400000000000
Al    0.300000000000    0.000000000000    0.500000000000
Al    0.200000000000    0.100000000000    0.500000000000
Al    0.200000000000    0.000000000000    0.600000000000
Al    0.300000000000    0.100000000000    0.600000000000
Al    0.300000000000    0.000000000000    0.700000000000
Al    0.200000000000    0.100000000000    0.700000000000
Al    0.200000000000    0.000000000000    0.800000000000
Al    0.300000000000    0.100000000000    0.800000000000
Al    0.300000000000    0.000000000000    0.900000000000
Al    0.200000000000    0.100000000000    0.900000000000
Al    0.200000000000    0.200000000000    0.000000000000
Al    0.300000000000    0.300000000000    0.000000000000
Al    0.300000000000    0.200000000000    0.100000000000
Al    0.200000000000    0.300000000000    0.100000000000
Al    0.200000000000    0.200000000000    0.200000000000
Al    0.300000000000    0.300000000000    0.200000000000
Al    0.300000000000    0.200000000000    0.300000000000
Al    0.200000000000    0.300000000000    0.300000000000
Al    0.200000000000    0.200000000000    0.400000000000
Al    0.300000000000    0.300000000000    0.400000000000
Al    0.300000000000    0.200000000000    0.500000000000
Al    0.200000000000    0.300000000000    0.500000000000
Al    0.200000000000    0.200000000000    0.600000000000
Al    0.300000000000    0.300000000000    0.600000000000
Al    0.300000000000    0.200000000000    0.700000000000
Al    0.200000000000    0.300000000000    0.700000000000
Al    0.200000000000    0.200000000000    0.800000000000
Al    0.300000000000    0.300000000000    0.800000000000
Al    0.300000000000    0.200000000000    0.900000000000
Al    0.200000000000    0.300000000000    0.900000000000
Al    0.200000000000    0.400000000000    0.000000000000
Al    0.300000000000    0.500000000000    0.000000000000
Al    0.300000000000    0.400000000000    0.100000000000
Al    0.200000000000    0.500000000000    0.100000000000
Al    0.200000000000    0.400000000000    0.200000000000
Al    0.300000000000    0.500000000000    0.200000000000
Al    0.300000000000    0.400000000000    0.300000000000
Al    0.200000000000    0.500000000000    0.300000000000
Al    0.200000000000    0.400000000000    0.400000000000
Al    0.300000000000    0.500000000000    0.400000000000
Al    0.300000000000    0.400000000000    0.500000000000
Al    0.200000000000    0.500000000000    0.500000000000
Al    0.200000000000    0.400000000000    0.600000000000
Al    0.300000000000    0.500000000000    0.600000000000
Al    0.300000000000    0.400000000000    0.700000000000
Al    0.200000000000    0.500000000000    0.700000000000
Al    0.200000000000    0.400000000000    0.800000000000
Al    0.300000000000    0.500000000000    0.800000000000
Al    0.300000000000    0.400000000000    0.900000000000
Al    0.200000000000    0.500000000000    0.900000000000
Al    0.200000000000    0.600000000000    0.000000000000
Al    0.300000000000    0.700000000000    0.000000000000
Al    0.300000000000    0.600000000000    0.100000000000
Al    0.200000000000    0.700000000000    0.100000000000
Al    0.200000000000    0.600000000000    0.200000000000
Al    0.300000000000    0.700000000000    0.200000000000
Al    0.300000000000    0.600000000000    0.300000000000
Al    0.200000000000    0.700000000000    0.300000000000
Al    0.200000000000    0.600000000000    0.400000000000
Al    0.300000000000    0.700000000000    0.400000000000
Al    0.300000000000    0.600000000000    0.500000000000
Al    0.200000000000    0.700000000000    0.500000000000
Al    0.200000000000    0.600000000000    0.600000000000
Al    0.300000000000    0.700000000000    0.600000000000
Al    0.300000000000    0.600000000000    0.700000000000
Al    0.200000000000    0.700000000000    0.700000000000
Al    0.200000000000    0.600000000000    0.800000000000
Al    0.300000000000    0.700000000000    0.800000000000
Al    0.300000000000    0.600000000000    0.900000000000
Al    0.200000000000    0.700000000000    0.900000000000
Al    0.200000000000    0.800000000000    0.000000000000
Al    0.300000000000    0.900000000000    0.000000000000
Al    0.300000000000    0.800000000000    0.100000000000
Al    0.200000000000    0.900000000000    0.100000000000
Al    0.200000000000    0.800000000000    0.200000000000
Al    0.300000000000    0.900000000000    0.200000000000
Al    0.300000000000    0.800000000000    0.300000000000
Al    0.200000000000    0.900000000000    0.300000000000
Al    0.200000000000    0.800000000000    0.400000000000
Al    0.300000000000    0.900000000000    0.400000000000
Al    0.300000000000    0.800000000000    0.500000000000
Al    0.200000000000    0.900000000000    0.500000000000
Al    0.200000000000    0.800000000000    0.600000000000
Al    0.300000000000    0.900000000000    0.600000000000
Al    0.300000000000    0.800000000000    0.700000000000
Al    0.200000000000    0.900000000000    0.700000000000
Al    0.200000000000    0.800000000000    0.800000000000
Al    0.300000000000    0.900000000000    0.800000000000
Al    0.300000000000    0.800000000000    0.900000000000
Al    0.200000000000    0.900000000000    0.900000000000
Al    0.400000000000    0.000000000000    0.000000000000
Al    0.500000000000    0.100000000000    0.000000000000
Al    0.500000000000    0.000000000000    0.100000000000
Al    0.400000000000    0.100000000000    0.100000000000
Al    0.400000000000    0.000000000000    0.200000000000
Al    0.500000000000    0.100000000000    0.200000000000
Al    0.500000000000    0.000000000000    0.300000000000
Al    0.400000000000    0.100000000000    0.300000000000
Al    0.400000000000    0.000000000000    0.400000000000
Al    0.500000000000    0.100000000000    0.400000000000
Al    0.500000000000    0.000000000000    0.500000000000
Al    0.400000000000    0.100000000000    0.500000000000
Al    0.400000000000    0.000000000000    0.600000000000
Al    0.500000000000    0.100000000000    0.600000000000
Al    0.500000000000    0.000000000000    0.700000000000
Al    0.400000000000    0.100000000000    0.700000000000
Al    0.400000000000    0.000000000000    0.800000000000
Al    0.500000000000    0.100000000000    0.800000000000
Al    0.500000000000    0.000000000000    0.900000000000
Al    0.400000000000    0.100000000000    0.900000000000
Al    0.400000000000    0.200000000000    0.000000000000
Al    0.500000000000    0.300000000000    0.000000000000
Al    0.500000000000    0.200000000000    0.100000000000
Al    0.400000000000    0.300000000000    0.100000000000
Al    0.400000000000    0.200000000000    0.200000000000
Al    0.500000000000    0.300000000000    0.200000000000
Al    0.500000000000    0.200000000000    0.300000000000
Al    0.400000000000    0.300000000000    0.300000000000
Al    0.400000000000    0.200000000000    0.400000000000
Al    0.500000000000    0.300000000000    0.400000000000
Al    0.500000000000    0.200000000000    0.500000000000
Al    0.400000000000    0.300000000000    0.500000000000
Al    0.400000000000    0.200000000000    0.600000000000
Al    0.500000000000    0.300000000000    0.600000000000
Al    0.500000000000    0.200000000000    0.700000000000
Al    0.400000000000    0.300000000000    0.700000000000
Al    0.400000000000    0.200000000000    0.800000000000
Al    0.500000000000    0.300000000000    0.800000000000
Al    0.500000000000    0.200000000000    0.900000000000
Al    0.400000000000    0.300000000000    0.900000000000
Al    0.400000000000    0.400000000000    0.000000000000
Al    0.500000000000    0.500000000000    0.000000000000
Al    0.500000000000    0.400000000000    0.100000000000
Al    0.400000000000    0.500000000000    0.100000000000
Al    0.400000000000    0.400000000000    0.200000000000
Al    0.500000000000    0.500000000000    0.200000000000
Al    0.500000000000    0.400000000000    0.300000000000
Al    0.400000000000    0.500000000000    0.300000000000
Al    0.400000000000    0.400000000000    0.400000000000
Al    0.500000000000    0.500000000000    0.400000000000
Al    0.500000000000    0.400000000000    0.500000000000
Al    0.400000000000    0.500000000000    0.500000000000
Al    0.400000000000    0.400000000000    0.600000000000
Al    0.500000000000    0.500000000000    0.600000000000
Al    0.500000000000    0.400000000000    0.700000000000
Al    0.400000000000    0.500000000000    0.700000000000
Al    0.400000000000    0.400000000000    0.800000000000
Al    0.500000000000    0.500000000000    0.800000000000
Al    0.500000000000    0.400000000000    0.900000000000
Al    0.400000000000    0.500000000000    0.900000000000
Al    0.400000000000    0.600000000000    0.000000000000
Al    0.500000000000    0.700000000000    0.000000000000
Al    0.500000000000    0.600000000000    0.100000000000
Al    0.400000000000    0.700000000000    0.100000000000
Al    0.400000000000    0.600000000000    0.200000000000
Al    0.500000000000    0.700000000000    0.200000000000
Al    0.500000000000    0.600000000000    0.300000000000
Al    0.400000000000    0.700000000000    0.300000000000
Al    0.400000000000    0.600000000000    0.400000000000
Al    0.500000000000    0.700000000000    0.400000000000
Al    0.500000000000    0.600000000000    0.500000000000
Al    0.400000000000    0.700000000000    0.500000000000
Al    0.400000000000    0.600000000000    0.600000000000
Al    0.500000000000    0.700000000000    0.600000000000
Al    0.500000000000    0.600000000000    0.700000000000
Al    0.400000000000    0.700000000000    0.700000000000
Al    0.400000000000    0.600000000000    0.800000000000
Al    0.500000000000    0.700000000000    0.800000000000
Al    0.500000000000    0.600000000000    0.900000000000
Al    0.400000000000    0.700000000000    0.900000000000
Al    0.400000000000    0.800000000000    0.000000000000
Al    0.500000000000    0.900000000000    0.000000000000
Al    0.500000000000    0.800000000000    0.100000000000
Al    0.400000000000    0.900000000000    0.100000000000
Al    0.400000000000    0.800000000000    0.200000000000
Al    0.500000000000    0.900000000000    0.200000000000
Al    0.500000000000    0.800000000000    0.300000000000
Al    0.400000000000    0.900000000000    0.300000000000
Al    0.400000000000    0.800000000000    0.400000000000
Al    0.500000000000    0.900000000000    0.400000000000
Al    0.500000000000    0.800000000000    0.500000000000
Al    0.400000000000    0.900000000000    0.500000000000
Al    0.400000000000    0.800000000000    0.600000000000
Al    0.500000000000    0.900000000000    0.600000000000
Al    0.500000000000    0.800000000000    0.700000000000
Al    0.400000000000    0.900000000000    0.700000000000
Al    0.400000000000    0.800000000000    0.800000000000
Al    0.500000000000    0.900000000000    0.800000000000
Al    0.500000000000    0.800000000000    0.900000000000
Al    0.400000000000    0.900000000000    0.900000000000
Al    0.600000000000    0.000000000000    0.000000000000
Al    0.700000000000    0.100000000000    0.000000000000
Al    0.700000000000    0.000000000000    0.100000000000
Al    0.600000000000    0.100000000000    0.100000000000
Al    0.600000000000    0.000000000000    0.200000000000
Al    0.700000000000    0.100000000000    0.200000000000
Al    0.700000000000    0.000000000000    0.300000000000
Al    0.600000000000    0.100000000000    0.300000000000
Al    0.600000000000    0.000000000000    0.400000000000
Al    0.700000000000    0.100000000000    0.400000000000
Al    0.700000000000    0.000000000000    0.500000000000
Al    0.600000000000    0.100000000000    0.500000000000
Al    0.600000000000    0.000000000000    0.600000000000
Al    0.700000000000    0.100000000000    0.600000000000
Al    0.700000000000    0.000000000000    0.700000000000
Al    0.600000000000    0.100000000000    0.700000000000
Al    0.600000000000    0.000000000000    0.800000000000
Al    0.700000000000    0.100000000000    0.800000000000
Al    0.700000000000    0.000000000000    0.900000000000
Al    0.600000000000    0.100000000000    0.900000000000
Al    0.600000000000    0.200000000000    0.000000000000
Al    0.700000000000    0.300000000000    0.000000000000
Al    0.700000000000    0.200000000000    0.100000000000
Al    0.600000000000    0.300000000000    0.100000000000
Al    0.600000000000    0.200000000000    0.200000000000
Al    0.700000000000    0.300000000000    0.200000000000
Al    0.700000000000    0.200000000000    0.300000000000
Al    0.600000000000    0.300000000000    0.300000000000
Al    0.600000000000    0.200000000000    0.400000000000
Al    0.700000000000    0.300000000000    0.400000000000
Al    0.700000000000    0.200000000000    0.500000000000
Al    0.600000000000    0.300000000000    0.500000000000
Al    0.600000000000    0.200000000000    0.600000000000
Al    0.700000000000    0.300000000000    0.600000000000
Al    0.700000000000    0.200000000000    0.700000000000
Al    0.600000000000    0.300000000000    0.700000000000
Al    0.600000000000    0.200000000000    0.800000000000
Al    0.700000000000    0.300000000000    0.800000000000
Al    0.700000000000    0.200000000000    0.900000000000
Al    0.600000000000    0.300000000000    0.900000000000
Al    0.600000000000    0.400000000000    0.000000000000
Al    0.700000000000    0.500000000000    0.000000000000
Al    0.700000000000    0.400000000000    0.100000000000
Al    0.600000000000    0.500000000000    0.100000000000
Al    0.600000000000    0.400000000000    0.200000000000
Al    0.700000000000    0.500000000000    0.200000000000
Al    0.700000000000    0.400000000000    0.300000000000
Al    0.600000000000    0.500000000000    0.300000000000
Al    0.600000000000    0.400000000000    0.400000000000
Al    0.700000000000    0.500000000000    0.400000000000
Al    0.700000000000    0.400000000000    0.500000000000
Al    0.600000000000    0.500000000000    0.500000000000
Al    0.600000000000    0.400000000000    0.600000000000
Al    0.700000000000    0.500000000000    0.600000000000
Al    0.700000000000    0.400000000000    0.700000000000
Al    0.600000000000    0.500000000000    0.700000000000
Al    0.600000000000    0.400000000000    0.800000000000
Al    0.700000000000    0.500000000000    0.800000000000
Al    0.700000000000    0.400000000000    0.900000000000
Al    0.600000000000    0.500000000000    0.900000000000
Al    0.600000000000    0.600000000000    0.000000000000
Al    0.700000000000    0.700000000000    0.000000000000
Al    0.700000000000    0.600000000000    0.100000000000
Al    0.600000000000    0.700000000000    0.100000000000
Al    0.600000000000    0.600000000000    0.200000000000
Al    0.700000000000    0.700000000000    0.200000000000
Al    0.700000000000    0.600000000000    0.300000000000
Al    0.600000000000    0.700000000000    0.300000000000
Al    0.600000000000    0.600000000000    0.400000000000
Al    0.700000000000    0.700000000000    0.400000000000
Al    0.700000000000    0.600000000000    0.500000000000
Al    0.600000000000    0.700000000000    0.500000000000
Al    0.600000000000    0.600000000000    0.600000000000
Al    0.700000000000    0.700000000000    0.600000000000
Al    0.700000000000    0.600000000000    0.700000000000
Al    0.600000000000    0.700000000000    0.700000000000
Al    0.600000000000    0.600000000000    0.800000000000
Al    0.700000000000    0.700000000000    0.800000000000
Al    0.700000000000    0.600000000000    0.900000000000
Al    0.600000000000    0.700000000000    0.900000000000
Al    0.600000000000    0.800000000000    0.000000000000
Al    0.700000000000    0.900000000000    0.000000000000
Al    0.700000000000    0.800000000000    0.100000000000
Al    0.600000000000    0.900000000000    0.100000000000
Al    0.600000000000    0.800000000000    0.200000000000
Al    0.700000000000    0.900000000000    0.200000000000
Al    0.700000000000    0.800000000000    0.300000000000
Al    0.600000000000    0.900000000000    0.300000000000
Al    0.600000000000    0.800000000000    0.400000000000
Al    0.700000000000    0.900000000000    0.400000000000
Al    0.700000000000    0.800000000000    0.500000000000
Al    0.600000000000    0.900000000000    0.500000000000
Al    0.600000000000    0.800000000000    0.600000000000
Al    0.700000000000    0.900000000000    0.600000000000
Al    0.700000000000    0.800000000000    0.700000000000
Al    0.600000000000    0.900000000000    0.700000000000
Al    0.600000000000    0.800000000000    0.800000000000
Al    0.700000000000    0.900000000000    0.800000000000
Al    0.700000000000    0.800000000000    0.900000000000
Al    0.600000000000    0.900000000000    0.900000000000
Al    0.800000000000    0.000000000000    0.000000000000
Al    0.900000000000    0.100000000000    0.000000000000
Al    0.900000000000    0.000000000000    0.100000000000
Al    0.800000000000    0.100000000000    0.100000000000
Al    0.800000000000    0.000000000000    0.200000000000
Al    0.900000000000    0.100000000000    0.200000000000
Al    0.900000000000    0.000000000000    0.300000000000
Al    0.800000000000    0.100000000000    0.300000000000
Al    0.800000000000    0.000000000000    0.400000000000
Al    0.900000000000    0.100000000000    0.400000000000
Al    0.900000000000    0.000000000000    0.500000000000
Al    0.800000000000    0.100000000000    0.500000000000
Al    0.800000000000    0.000000000000    0.600000000000
Al    0.900000000000    0.100000000000    0.600000000000
Al    0.900000000000    0.000000000000    0.700000000000
Al    0.800000000000    0.100000000000    0.700000000000
Al    0.800000000000    0.000000000000    0.800000000000
Al    0.900000000000    0.100000000000    0.800000000000
Al    0.900000000000    0.000000000000    0.900000000000
Al    0.800000000000    0.100000000000    0.900000000000
Al    0.800000000000    0.200000000000    0.000000000000
Al    0.900000000000    0.300000000000    0.000000000000
Al    0.900000000000    0.200000000000    0.100000000000
Al    0.800000000000    0.300000000000    0.100000000000
Al    0.800000000000    0.200000000000    0.200000000000
Al    0.900000000000    0.300000000000    0.200000000000
Al    0.900000000000    0.200000000000    0.300000000000
Al    0.800000000000    0.300000000000    0.300000000000
Al    0.800000000000    0.200000000000    0.400000000000
Al    0.900000000000    0.300000000000    0.400000000000
Al    0.900000000000    0.200000000000    0.500000000000
Al    0.800000000000    0.300000000000    0.500000000000
Al    0.800000000000    0.200000000000    0.600000000000
Al    0.900000000000    0.300000000000    0.600000000000
Al    0.900000000000    0.200000000000    0.700000000000
Al    0.800000000000    0.300000000000    0.700000000000
Al    0.800000000000    0.200000000000    0.800000000000
Al    0.900000000000    0.300000000000    0.800000000000
Al    0.900000000000    0.200000000000    0.900000000000
Al    0.800000000000    0.300000000000    0.900000000000
Al    0.800000000000    0.400000000000    0.000000000000
Al    0.900000000000    0.500000000000    0.000000000000
Al    0.900000000000    0.400000000000    0.100000000000
Al    0.800000000000    0.500000000000    0.100000000000
Al    0.800000000000    0.400000000000    0.200000000000
Al    0.900000000000    0.500000000000    0.200000000000
Al    0.900000000000    0.400000000000    0.300000000000
Al    0.800000000000    0.500000000000    0.300000000000
Al    0.800000000000    0.400000000000    0.400000000000
Al    0.900000000000    0.500000000000    0.400000000000
Al    0.900000000000    0.400000000000    0.500000000000
Al    0.800000000000    0.500000000000    0.500000000000
Al    0.800000000000    0.400000000000    0.600000000000
Al    0.900000000000    0.500000000000    0.600000000000
Al    0.900000000000    0.400000000000    0.700000000000
Al    0.800000000000    0.500000000000    0.700000000000
Al    0.800000000000    0.400000000000    0.800000000000
Al    0.900000000000    0.500000000000    0.800000000000
Al    0.900000000000    0.400000000000    0.900000000000
Al    0.800000000000    0.500000000000    0.900000000000
Al    0.800000000000    0.600000000000    0.000000000000
Al    0.900000000000    0.700000000000    0.000000000000
Al    0.900000000000    0.600000000000    0.100000000000
Al    0.800000000000    0.700000000000    0.100000000000
Al    0.800000000000    0.600000000000    0.200000000000
Al    0.900000000000    0.700000000000    0.200000000000
Al    0.900000000000    0.600000000000    0.300000000000
Al    0.800000000000    0.700000000000    0.300000000000
Al    0.800000000000    0.600000000000    0.400000000000
Al    0.900000000000    0.700000000000    0.400000000000
Al    0.900000000000    0.600000000000    0.500000000000
Al    0.800000000000    0.700000000000    0.500000000000
Al    0.800000000000    0.600000000000    0.600000000000
Al    0.900000000000    0.700000000000    0.600000000000
Al    0.900000000000    0.600000000000    0.700000000000
Al    0.800000000000    0.700000000000    0.700000000000
Al    0.800000000000    0.600000000000    0.800000000000
Al    0.900000000000    0.700000000000    0.800000000000
Al    0.900000000000    0.600000000000    0.900000000000
Al    0.800000000000    0.700000000000    0.900000000000
Al    0.800000000000    0.800000000000    0.000000000000
Al    0.900000000000    0.900000000000    0.000000000000
Al    0.900000000000    0.800000000000    0.100000000000
Al    0.800000000000    0.900000000000    0.100000000000
Al    0.800000000000    0.800000000000    0.200000000000
Al    0.900000000000    0.900000000000    0.200000000000
Al    0.900000000000    0.800000000000    0.300000000000
Al    0.800000000000    0.900000000000    0.300000000000
Al    0.800000000000    0.800000000000    0.400000000000
Al    0.900000000000    0.900000000000    0.400000000000
Al    0.900000000000    0.800000000000    0.500000000000
Al    0.800000000000    0.900000000000    0.500000000000
Al    0.800000000000    0.800000000000    0.600000000000
Al    0.900000000000    0.900000000000    0.600000000000
Al    0.900000000000    0.800000000000    0.700000000000
Al    0.800000000000    0.900000000000    0.700000000000
Al    0.800000000000    0.800000000000    0.800000000000
Al    0.900000000000    0.900000000000    0.800000000000
Al    0.900000000000    0.800000000000    0.900000000000
Al    0.800000000000    0.900000000000    0.900000000000
%END BLOCK POSITIONS_FRAC
%BLOCK SPECIES_POT
Al al.lda.recpot
%END BLOCK SPECIES_POT
