%BLOCK LATTICE_CART
1.767190686930    -3.060864056426    0.000000000000    
1.767190686930    3.060864056426    0.000000000000    
0.000000000000    0.000000000000    5.826298111600    
%END BLOCK LATTICE_CART
%BLOCK POSITIONS_FRAC
Ga    0.666666666667    0.333333333333    0.500054490000
Ga    0.333333333333    0.666666666667    0.000054490000
P    0.666666666667    0.333333333333    0.873945510000
P    0.333333333333    0.666666666667    0.373945510000
%END BLOCK POSITIONS_FRAC
%BLOCK SPECIES_POT
Ga ga.gga.recpot
P p.gga.recpot
%END BLOCK SPECIES_POT
