ATOMIC_SPECIES
Al 26.981539 al.lda.lps

LATTICE_CONSTANT
7.50241114482312  // add lattice constant

LATTICE_VECTORS
0.707106781187    0.000000000000    0.000000000000    
0.353553390593    0.612372435696    0.000000000000    
0.000000000000    0.000000000000    11.547005383792515

ATOMIC_POSITIONS
Direct

Al
0.0
20
    1.3369014534E-30  1.3369014534E-30  8.2327286381E-05 1 1 1
    3.3333333330E-01  3.3333333330E-01  4.9754752278E-02 1 1 1
    6.6666666670E-01  6.6666666670E-01  9.9735134676E-02 1 1 1
    1.2725712721E-30  1.2725712721E-30  1.4952869496E-01 1 1 1
    3.3333333330E-01  3.3333333330E-01  1.9939537509E-01 1 1 1
    8.3333333330E-01  8.3333333330E-01  2.5069955691E-01 1 1 1
    1.6666666670E-01  1.6666666670E-01  3.0046628121E-01 1 1 1
    5.0000000000E-01  5.0000000000E-01  3.5035833540E-01 1 1 1
    8.3333333330E-01  8.3333333330E-01  4.0001225093E-01 1 1 1
    1.6666666670E-01  1.6666666670E-01  4.5000000000E-01 1 1 1
    8.3333333330E-01  8.3333333330E-01  4.9998774907E-01 1 1 1
    5.0000000000E-01  5.0000000000E-01  5.4964166460E-01 1 1 1
    1.6666666670E-01  1.6666666670E-01  5.9953371879E-01 1 1 1
    8.3333333330E-01  8.3333333330E-01  6.4930044309E-01 1 1 1
    3.3333333330E-01  3.3333333330E-01  7.0060462491E-01 1 1 1
    1.2725712721E-30  1.2725712721E-30  7.5047130504E-01 1 1 1
    6.6666666670E-01  6.6666666670E-01  8.0026486532E-01 1 1 1
    3.3333333330E-01  3.3333333330E-01  8.5024524772E-01 1 1 1
    1.3369014534E-30  1.3369014534E-30  8.9991767271E-01 1 1 1
    6.6666666670E-01  6.6666666670E-01  9.5000000000E-01 1 1 1
