ATOMIC_SPECIES
Mg 24.305 mg.gga.psp blps
Al 26.981 al.gga.psp blps

LATTICE_CONSTANT
1.8897259885789233  // add lattice constant

LATTICE_VECTORS
3.135620842426    -5.431054612354    0.000000000000    
3.135620842426    5.431054612354    0.000000000000    
0.000000000000    0.000000000000    5.052189120000    

ATOMIC_POSITIONS
Direct

Mg
0.0
7
    0.999607460000    0.499803730000    0.000000000000 1 1 1
    0.500196270000    0.000392540000    0.000000000000 1 1 1
    0.500196270000    0.499803730000    0.000000000000 1 1 1
    0.164929390000    0.835070610000    0.500000000000 1 1 1
    0.164929390000    0.329858780000    0.500000000000 1 1 1
    0.670141220000    0.835070610000    0.500000000000 1 1 1
    0.666666666667    0.333333333333    0.500000000000 1 1 1
Al
0.0
1
    0.000000000000    0.000000000000    0.000000000000 1 1 1
