%BLOCK LATTICE_CART
   3.138256012247332  -0.000048112332033  -0.000000162157073
  -1.569169556758465   2.717785171765982   0.000000018682058
  -0.000000105302243   0.000000009700120   5.119195777648499
%END BLOCK LATTICE_CART
%BLOCK POSITIONS_FRAC
    Mg   0.000000000000000   0.000000000000000   0.000000000000000
    Mg   0.666666666667000   0.333333333333000   0.500000000000000
%END BLOCK POSITIONS_FRAC
%BLOCK SPECIES_POT
    Mg mg.lda.recpot                                                                          
%END BLOCK SPECIES_POT
