%BLOCK LATTICE_CART
   2.805799707700000   0.000000000000000   0.000000000000000
   1.402899853850000   2.429893824799152   0.000000000000000
   0.000000000000003   0.000000000000002  46.706813326941322
%END BLOCK LATTICE_CART
%BLOCK POSITIONS_FRAC
    Al   0.000000000000000   0.000000000000000   0.999976490116705
    Al   0.333333333300000   0.333333333300000   0.049925397730350
    Al   0.666666666700000   0.666666666700000   0.099871055332808
    Al   0.000000000000000   0.000000000000000   0.149800349280292
    Al   0.333333333300000   0.333333333300000   0.199743530914542
    Al   0.733333333300000   0.733333333300000   0.250250551741399
    Al   0.066666666700000   0.066666666700000   0.300194588675702
    Al   0.400000000000000   0.400000000000000   0.350127513855681
    Al   0.733333333300000   0.733333333300000   0.400053428405258
    Al   0.066666666700000   0.066666666700000   0.449999962997789
    Al   0.733333333300000   0.733333333300000   0.499946540996298
    Al   0.400000000000000   0.400000000000000   0.549872506899161
    Al   0.066666666700000   0.066666666700000   0.599805419410519
    Al   0.733333333300000   0.733333333300000   0.649749397504691
    Al   0.333333333300000   0.333333333300000   0.700256401700973
    Al   1.000000000000000   1.000000000000000   0.750199632174269
    Al   0.666666666700000   0.666666666700000   0.800129011970165
    Al   0.333333333300000   0.333333333300000   0.850074698642547
    Al   0.000000000000000   0.000000000000000   0.900023564264858
    Al   0.666666666700000   0.666666666700000   0.950000008077649
%END BLOCK POSITIONS_FRAC
%BLOCK SPECIES_POT
    Al al.lda.recpot                                                                          
%END BLOCK SPECIES_POT
%BLOCK ION_OPTIMIZATION
           0           0           1
           0           0           1
           0           0           1
           0           0           1
           0           0           1
           0           0           1
           0           0           1
           0           0           1
           0           0           1
           0           0           1
           0           0           1
           0           0           1
           0           0           1
           0           0           1
           0           0           1
           0           0           1
           0           0           1
           0           0           1
           0           0           1
           0           0           1
%END BLOCK ION_OPTIMIZATION
