ATOMIC_SPECIES
Mg 24.305 mg.gga.psp blps
Al 26.981 al.gga.psp blps

LATTICE_CONSTANT
1.8897259885789233  // add lattice constant

LATTICE_VECTORS
2.494266121332    -4.320195649745    0.000000000000    
2.494266121332    4.320195649745    0.000000000000    
0.000000000000    0.000000000000    5.501044000000    

ATOMIC_POSITIONS
Direct

Mg
0.0
2
    0.666666666667    0.333333333333    0.750000000000 1 1 1
    0.333333333333    0.666666666667    0.250000000000 1 1 1
Al
0.0
2
    0.666666666667    0.333333333333    0.250000000000 1 1 1
    0.333333333333    0.666666666667    0.750000000000 1 1 1
