%BLOCK LATTICE_CART
   2.917449696194233   0.000000014275067   0.000000037181578
   0.000000014275067   2.917449697001972  -0.000000009698106
   0.000000037181578  -0.000000009698106   2.917449697002199
%END BLOCK LATTICE_CART
%BLOCK POSITIONS_FRAC
    Mg   0.000000000000000   0.000000000000000   0.000000000000000
%END BLOCK POSITIONS_FRAC
%BLOCK SPECIES_POT
    Mg mg.lda.recpot                                                                          
%END BLOCK SPECIES_POT
