%BLOCK LATTICE_CART
   4.117335730505050  -0.000000219307812  -0.000000523502681
  -0.000000219307807   4.117336382102605  -0.000000023308820
  -0.000000523502674  -0.000000023308821   4.117336382103955
%END BLOCK LATTICE_CART
%BLOCK POSITIONS_FRAC
    Mg   0.000000000000000   0.000000000000000   0.000000000000000
    Al   0.000000000000000   0.500000000000000   0.500000000000000
    Al   0.500000000000000   0.500000000000000   0.000000000000000
    Al   0.500000000000000   0.000000000000000   0.500000000000000
%END BLOCK POSITIONS_FRAC
%BLOCK SPECIES_POT
    Mg mg.lda.recpot                                                                          
    Al al.lda.recpot                                                                          
%END BLOCK SPECIES_POT
