%BLOCK LATTICE_CART
2.735015807462    0.000000000000    0.000000000000    
-1.367507903731    2.368593169014    0.000000000000    
0.000000000000    0.000000000000    4.626892945451    
%END BLOCK LATTICE_CART
%BLOCK POSITIONS_FRAC
Al    0.000000000000    0.000000000000    0.000000000000
Al    0.666666666667    0.333333333333    0.500000000000
%END BLOCK POSITIONS_FRAC
%BLOCK SPECIES_POT
Al al.lda.recpot
%END BLOCK SPECIES_POT
