Transformation
1
19.85860000000000  0.00000000000000  0.00000000000000
0.00000000000000  19.85860000000000  0.00000000000000
0.00000000000000  0.00000000000000  4.26740000000000
  C
  40
Direct
0.69790000000000  0.50000000000000  0.33300000000000  T  T  T
0.69790000000000  0.50000000000000  0.00000000000000  T  T  T
0.68820000000000  0.56110000000000  0.83300000000000  T  T  T
0.68820000000000  0.56110000000000  0.50000000000000  T  T  T
0.66010000000000  0.61630000000000  0.33300000000000  T  T  T
0.66010000000000  0.61630000000000  0.00000000000000  T  T  T
0.61630000000000  0.66010000000000  0.83300000000000  T  T  T
0.61630000000000  0.66010000000000  0.50000000000000  T  T  T
0.56110000000000  0.68820000000000  0.33300000000000  T  T  T
0.56110000000000  0.68820000000000  0.00000000000000  T  T  T
0.50000000000000  0.69790000000000  0.83300000000000  T  T  T
0.50000000000000  0.69790000000000  0.50000000000000  T  T  T
0.43890000000000  0.68820000000000  0.33300000000000  T  T  T
0.43890000000000  0.68820000000000  0.00000000000000  T  T  T
0.38370000000000  0.66010000000000  0.83300000000000  T  T  T
0.38370000000000  0.66010000000000  0.50000000000000  T  T  T
0.33990000000000  0.61630000000000  0.33300000000000  T  T  T
0.33990000000000  0.61630000000000  0.00000000000000  T  T  T
0.31180000000000  0.56110000000000  0.83300000000000  T  T  T
0.31180000000000  0.56110000000000  0.50000000000000  T  T  T
0.30210000000000  0.50000000000000  0.33300000000000  T  T  T
0.30210000000000  0.50000000000000  0.00000000000000  T  T  T
0.31180000000000  0.43890000000000  0.83300000000000  T  T  T
0.31180000000000  0.43890000000000  0.50000000000000  T  T  T
0.33990000000000  0.38370000000000  0.33300000000000  T  T  T
0.33990000000000  0.38370000000000  0.00000000000000  T  T  T
0.38370000000000  0.33990000000000  0.83300000000000  T  T  T
0.38370000000000  0.33990000000000  0.50000000000000  T  T  T
0.43890000000000  0.31180000000000  0.33300000000000  T  T  T
0.43890000000000  0.31180000000000  0.00000000000000  T  T  T
0.50000000000000  0.30210000000000  0.83300000000000  T  T  T
0.50000000000000  0.30210000000000  0.50000000000000  T  T  T
0.56110000000000  0.31180000000000  0.33300000000000  T  T  T
0.56110000000000  0.31180000000000  0.00000000000000  T  T  T
0.61630000000000  0.33990000000000  0.83300000000000  T  T  T
0.61630000000000  0.33990000000000  0.50000000000000  T  T  T
0.66010000000000  0.38370000000000  0.33300000000000  T  T  T
0.66010000000000  0.38370000000000  0.00000000000000  T  T  T
0.68820000000000  0.43890000000000  0.83300000000000  T  T  T
0.68820000000000  0.43890000000000  0.50000000000000  T  T  T
