ATOMIC_SPECIES
C 12.011 C_ONCV_PBE-1.0.upf

NUMERICAL_ORBITAL
C_gga_8au_60Ry_2s2p1d.orb

LATTICE_CONSTANT
1

LATTICE_VECTORS
37.5273125167934  0.00000000000000  0.000000000000000
0.00000000000000  37.5273125167934  0.000000000000000
0.00000000000000  0.00000000000000  8.064216683661697

ATOMIC_POSITIONS
Direct

C
0
40
0.6979	0.5000	0.3330	1	1	1
0.6979	0.5000	0.0000	1	1	1
0.6882	0.5611	0.8330	1	1	1
0.6882	0.5611	0.5000	1	1	1
0.6601	0.6163	0.3330	1	1	1
0.6601	0.6163	0.0000	1	1	1
0.6163	0.6601	0.8330	1	1	1
0.6163	0.6601	0.5000	1	1	1
0.5611	0.6882	0.3330	1	1	1
0.5611	0.6882	0.0000	1	1	1
0.5000	0.6979	0.8330	1	1	1
0.5000	0.6979	0.5000	1	1	1
0.4389	0.6882	0.3330	1	1	1
0.4389	0.6882	0.0000	1	1	1
0.3837	0.6601	0.8330	1	1	1
0.3837	0.6601	0.5000	1	1	1
0.3399	0.6163	0.3330	1	1	1
0.3399	0.6163	0.0000	1	1	1
0.3118	0.5611	0.8330	1	1	1
0.3118	0.5611	0.5000	1	1	1
0.3021	0.5000	0.3330	1	1	1
0.3021	0.5000	0.0000	1	1	1
0.3118	0.4389	0.8330	1	1	1
0.3118	0.4389	0.5000	1	1	1
0.3399	0.3837	0.3330	1	1	1
0.3399	0.3837	0.0000	1	1	1
0.3837	0.3399	0.8330	1	1	1
0.3837	0.3399	0.5000	1	1	1
0.4389	0.3118	0.3330	1	1	1
0.4389	0.3118	0.0000	1	1	1
0.5000	0.3021	0.8330	1	1	1
0.5000	0.3021	0.5000	1	1	1
0.5611	0.3118	0.3330	1	1	1
0.5611	0.3118	0.0000	1	1	1
0.6163	0.3399	0.8330	1	1	1
0.6163	0.3399	0.5000	1	1	1
0.6601	0.3837	0.3330	1	1	1
0.6601	0.3837	0.0000	1	1	1
0.6882	0.4389	0.8330	1	1	1
0.6882	0.4389	0.5000	1	1	1
