%BLOCK LATTICE_CART
0.000000000000    -0.000000000000    0.000000000000    
0.000000000000    0.000000000000    0.000000000000    
0.000000000000    0.000000000000    0.000000000000    
%END BLOCK LATTICE_CART
%BLOCK POSITIONS_FRAC
In    0.666666666667    0.333333333333    0.500588140000
In    0.333333333333    0.666666666667    0.000588140000
As    0.666666666667    0.333333333333    0.874911860000
As    0.333333333333    0.666666666667    0.374911860000
%END BLOCK POSITIONS_FRAC
%BLOCK SPECIES_POT
In in.gga.psp
As as.gga.psp
%END BLOCK SPECIES_POT
