ATOMIC_SPECIES
Al 26.981539 Al_ONCV_PBE-1.2.upf

LATTICE_CONSTANT
7.4984327225523  // add lattice constant

LATTICE_VECTORS
0.707106781187    0.000000000000    0.000000000000    
0.353553390593    0.612372435696    0.000000000000    
0.000000000000    0.000000000000    11.547005383792515 

ATOMIC_POSITIONS
Direct

Al
0.0
20
    2.4367414115E-30  2.4367414115E-30  9.5624025895E-05 1 1 1
    3.3333333330E-01  3.3333333330E-01  4.9711951141E-02 1 1 1
    6.6666666670E-01  6.6666666670E-01  9.9694217938E-02 1 1 1
    2.3724112302E-30  2.3724112302E-30  1.4945611902E-01 1 1 1
    3.3333333330E-01  3.3333333330E-01  1.9933369013E-01 1 1 1
    8.3333333330E-01  8.3333333330E-01  2.5072970939E-01 1 1 1
    1.6666666670E-01  1.6666666670E-01  3.0053664670E-01 1 1 1
    5.0000000000E-01  5.0000000000E-01  3.5040609755E-01 1 1 1
    8.3333333330E-01  8.3333333330E-01  3.9998635764E-01 1 1 1
    1.6666666670E-01  1.6666666670E-01  4.5000000000E-01 1 1 1
    8.3333333330E-01  8.3333333330E-01  5.0001364236E-01 1 1 1
    5.0000000000E-01  5.0000000000E-01  5.4959390245E-01 1 1 1
    1.6666666670E-01  1.6666666670E-01  5.9946335330E-01 1 1 1
    8.3333333330E-01  8.3333333330E-01  6.4927029061E-01 1 1 1
    3.3333333330E-01  3.3333333330E-01  7.0066630987E-01 1 1 1
    2.3724112302E-30  2.3724112302E-30  7.5054388098E-01 1 1 1
    6.6666666670E-01  6.6666666670E-01  8.0030578206E-01 1 1 1
    3.3333333330E-01  3.3333333330E-01  8.5028804886E-01 1 1 1
    2.4367414115E-30  2.4367414115E-30  8.9990437597E-01 1 1 1
    6.6666666670E-01  6.6666666670E-01  9.5000000000E-01 1 1 1
