ATOMIC_SPECIES
Ga  69.7230 ga.gga.psp blps
P  30.9740 p.gga.psp blps

LATTICE_CONSTANT
1.8897259886

LATTICE_VECTORS
        1.9243169627       -3.3330147493       -0.0000000000
        1.9243169627        3.3330147493       -0.0000000000
        0.0000000000        0.0000000000        6.3455175856

ATOMIC_POSITIONS
Direct

Ga #label
0.0000   #magnetism
2 #number of atoms
        0.6666666667        0.3333333333        0.4998590045 m 1 1 1
        0.3333333333        0.6666666667        0.9998590045 m 1 1 1

P #label
0.0000   #magnetism
2 #number of atoms
        0.6666666667        0.3333333333        0.8741409955 m 1 1 1
        0.3333333333        0.6666666667        0.3741409955 m 1 1 1
