ATOMIC_SPECIES
Ga  69.7230 ga.gga.psp blps
P  30.9740 p.gga.psp blps

LATTICE_CONSTANT
1.8897259886

LATTICE_VECTORS
        1.9235502798       -3.3316868155       -0.0000000000
        1.9235502798        3.3316868155       -0.0000000000
        0.0000000000        0.0000000000        6.3402912733

ATOMIC_POSITIONS
Direct

Ga #label
0.0000   #magnetism
2 #number of atoms
        0.6666666667        0.3333333333        0.4999436318 m 1 1 1
        0.3333333333        0.6666666667        0.9999436318 m 1 1 1

P #label
0.0000   #magnetism
2 #number of atoms
        0.6666666667        0.3333333333        0.8740563682 m 1 1 1
        0.3333333333        0.6666666667        0.3740563682 m 1 1 1
