%BLOCK LATTICE_CART
   2.648083315432942   0.000000003910637   0.000000010178304
   0.000000003910637   2.648083315859195  -0.000000002550309
   0.000000010178304  -0.000000002550309   2.648083315859421
%END BLOCK LATTICE_CART
%BLOCK POSITIONS_FRAC
    Al   0.000000000000000   0.000000000000000   0.000000000000000
%END BLOCK POSITIONS_FRAC
%BLOCK SPECIES_POT
    Al al.lda.recpot                                                                          
%END BLOCK SPECIES_POT
