%BLOCK LATTICE_CART
   2.807406101100000   0.000000000000000   0.000000000000000
   1.403703050550000   2.431285002292024   0.000000000000000
   0.000000000000003   0.000000000000002  46.096914402010945
%END BLOCK LATTICE_CART
%BLOCK POSITIONS_FRAC
    Al   0.000000000000000   0.000000000000000   0.000129950428608
    Al   0.333333333300000   0.333333333300000   0.049815817197600
    Al   0.666666666700000   0.666666666700000   0.099439394771653
    Al   0.000000000000000   0.000000000000000   0.149374740949022
    Al   0.333333333300000   0.333333333300000   0.198870808438984
    Al   0.866666666700000   0.866666666700000   0.250949033381090
    Al   0.200000000000000   0.200000000000000   0.300406825959653
    Al   0.533333333300000   0.533333333300000   0.350364187227164
    Al   0.866666666700000   0.866666666700000   0.399891860365604
    Al   0.200000000000000   0.200000000000000   0.450000209404286
    Al   0.866666666700000   0.866666666700000   0.500108570870195
    Al   0.533333333300000   0.533333333300000   0.549636243290694
    Al   0.200000000000000   0.200000000000000   0.599593441161630
    Al   0.866666666700000   0.866666666700000   0.649051008341979
    Al   0.333333333300000   0.333333333300000   0.701129087160150
    Al   0.000000000000000   0.000000000000000   0.750624985505117
    Al   0.666666666700000   0.666666666700000   0.800560272654599
    Al   0.333333333300000   0.333333333300000   0.850183783326737
    Al   0.000000000000000   0.000000000000000   0.899869515614849
    Al   0.666666666700000   0.666666666700000   0.949999697723031
%END BLOCK POSITIONS_FRAC
%BLOCK SPECIES_POT
    Al al.lda.recpot                                                                          
%END BLOCK SPECIES_POT
%BLOCK ION_OPTIMIZATION
           0           0           1
           0           0           1
           0           0           1
           0           0           1
           0           0           1
           0           0           1
           0           0           1
           0           0           1
           0           0           1
           0           0           1
           0           0           1
           0           0           1
           0           0           1
           0           0           1
           0           0           1
           0           0           1
           0           0           1
           0           0           1
           0           0           1
           0           0           1
%END BLOCK ION_OPTIMIZATION
