%BLOCK LATTICE_CART
   0.001106056202528   2.802115923142899   2.802325772222598
   2.802312695214613   0.001272749212295   2.802356574675177
   2.802272026013686   2.802106056264451   0.001061969577833
%END BLOCK LATTICE_CART
%BLOCK POSITIONS_FRAC
    Li   0.000000000000000   0.000000000000000   0.000000000000000
    Li   0.250000000000000   0.250000000000000   0.250000000000000
%END BLOCK POSITIONS_FRAC
%BLOCK SPECIES_POT
    Li li.lda.recpot                                                                          
%END BLOCK SPECIES_POT
