%BLOCK LATTICE_CART
   2.805799707700000   0.000000000000000   0.000000000000000
   1.402899853850000   2.429893824799152   0.000000000000000
   0.000000000000003   0.000000000000002  51.058167679858904
%END BLOCK LATTICE_CART
%BLOCK POSITIONS_FRAC
    Al   0.000000000000000   0.000000000000000   0.000155799562237
    Al   0.333333333300000   0.333333333300000   0.045192689047616
    Al   0.666666666700000   0.666666666700000   0.090227483569130
    Al   0.000000000000000   0.000000000000000   0.135280189059579
    Al   0.333333333300000   0.333333333300000   0.180903734362115
    Al   0.000000000000000   0.000000000000000   0.226836695267688
    Al   0.466666666700000   0.466666666700000   0.273637236359599
    Al   0.800000000000000   0.800000000000000   0.318866689336511
    Al   0.133333333300000   0.133333333300000   0.363908622322215
    Al   0.466666666700000   0.466666666700000   0.408955999378627
    Al   0.800000000000000   0.800000000000000   0.454546536226065
    Al   0.466666666700000   0.466666666700000   0.500136981943213
    Al   0.133333333300000   0.133333333300000   0.545184153832087
    Al   0.800000000000000   0.800000000000000   0.590225717600287
    Al   0.466666666700000   0.466666666700000   0.635454696774269
    Al   0.000000000000000   0.000000000000000   0.682254670726505
    Al   0.333333333300000   0.333333333300000   0.728187008635855
    Al   0.000000000000000   0.000000000000000   0.773809929967891
    Al   0.666666666700000   0.666666666700000   0.818862116950135
    Al   0.333333333300000   0.333333333300000   0.863896438265433
    Al   0.000000000000000   0.000000000000000   0.908933034400144
    Al   0.666666666700000   0.666666666700000   0.954544351362046
%END BLOCK POSITIONS_FRAC
%BLOCK SPECIES_POT
    Al al_HC.lda.recpot                                                                       
%END BLOCK SPECIES_POT
%BLOCK ION_OPTIMIZATION
           0           0           1
           0           0           1
           0           0           1
           0           0           1
           0           0           1
           0           0           1
           0           0           1
           0           0           1
           0           0           1
           0           0           1
           0           0           1
           0           0           1
           0           0           1
           0           0           1
           0           0           1
           0           0           1
           0           0           1
           0           0           1
           0           0           1
           0           0           1
           0           0           1
           0           0           1
%END BLOCK ION_OPTIMIZATION
