%BLOCK LATTICE_CART
   2.812387583300000   0.000000000000000   0.000000000000000
   1.406193791650000   2.435599092425724   0.000000000000000
   0.000000000000003   0.000000000000002  45.967851719465493
%END BLOCK LATTICE_CART
%BLOCK POSITIONS_FRAC
    Al   0.000000000000000   0.000000000000000   0.000215440633374
    Al   0.333333333300000   0.333333333300000   0.050099404146538
    Al   0.666666666700000   0.666666666700000   0.100028533149214
    Al   0.000000000000000   0.000000000000000   0.149957471089683
    Al   0.333333333300000   0.333333333300000   0.199851252949308
    Al   0.700000000000000   0.700000000000000   0.250100843073737
    Al   0.033333333300000   0.033333333300000   0.299989823054930
    Al   0.366666666700000   0.366666666700000   0.349929380451450
    Al   0.700000000000000   0.700000000000000   0.399808232280049
    Al   0.033333333300000   0.033333333300000   0.450000020201773
    Al   0.700000000000000   0.700000000000000   0.500191864417279
    Al   0.366666666700000   0.366666666700000   0.550070784086444
    Al   0.033333333300000   0.033333333300000   0.600010309154152
    Al   0.700000000000000   0.700000000000000   0.649899157605722
    Al   0.333333333300000   0.333333333300000   0.700148654894477
    Al   0.000000000000000   0.000000000000000   0.750042454476908
    Al   0.666666666700000   0.666666666700000   0.799971457890414
    Al   0.333333333300000   0.333333333300000   0.849900558118515
    Al   0.000000000000000   0.000000000000000   0.899784413363810
    Al   0.666666666700000   0.666666666700000   0.949999892987675
%END BLOCK POSITIONS_FRAC
%BLOCK SPECIES_POT
    Al al.lda.recpot                                                                          
%END BLOCK SPECIES_POT
%BLOCK ION_OPTIMIZATION
           0           0           1
           0           0           1
           0           0           1
           0           0           1
           0           0           1
           0           0           1
           0           0           1
           0           0           1
           0           0           1
           0           0           1
           0           0           1
           0           0           1
           0           0           1
           0           0           1
           0           0           1
           0           0           1
           0           0           1
           0           0           1
           0           0           1
           0           0           1
%END BLOCK ION_OPTIMIZATION
