%BLOCK LATTICE_CART
   0.001313363547259   2.201427302255591   2.201427297196284
   2.201427286998468   0.001313339770054   2.201427305694918
   2.201427287176033   2.201427310931789   0.001313344836622
%END BLOCK LATTICE_CART
%BLOCK POSITIONS_FRAC
    Mg   0.000000000000000   0.000000000000000   0.000000000000000
%END BLOCK POSITIONS_FRAC
%BLOCK SPECIES_POT
    Mg mg.lda.recpot                                                                          
%END BLOCK SPECIES_POT
