%BLOCK LATTICE_CART
  -1.676282985933811   1.675219122873181   1.675230588694928
   1.675221287016964  -1.676274875003018   1.675222465755599
   1.675224933198227   1.675214646108101  -1.676278438885690
%END BLOCK LATTICE_CART
%BLOCK POSITIONS_FRAC
    Li   0.000000000000000   0.000000000000000   0.000000000000000
%END BLOCK POSITIONS_FRAC
%BLOCK SPECIES_POT
    Li li.lda.recpot                                                                          
%END BLOCK SPECIES_POT
