%BLOCK LATTICE_CART
   2.924282587457562   0.000000000931216   0.000000003130093
   0.000000000931216   2.924282587782216  -0.000000001407583
   0.000000003130093  -0.000000001407583   2.924282587783442
%END BLOCK LATTICE_CART
%BLOCK POSITIONS_FRAC
    Mg   0.000000000000000   0.000000000000000   0.000000000000000
%END BLOCK POSITIONS_FRAC
%BLOCK SPECIES_POT
    Mg mg.lda.recpot                                                                          
%END BLOCK SPECIES_POT
