ATOMIC_SPECIES
Al 13 al.lda.lps

LATTICE_CONSTANT
7.50241114482

LATTICE_VECTORS
0.707106781187 0 0 #latvec1
0.353553390593 0.612372435696 0 #latvec2
0 0 11.5470053838 #latvec3

ATOMIC_POSITIONS
Direct

Al #label
0 #magnetism
20 #number of atoms
0 0 0.998045930717 0 0 1 0 0 0
0.333333333332 0.333333333332 0.0491960092994 0 0 1 0 0 0
0.666666666668 0.666666666668 0.0983415045056 0 0 1 0 0 0
0 0 0.150309662426 0 0 1 0 0 0
0.333333333332 0.333333333332 0.198573583136 0 0 1 0 0 0
0.666666666668 0.666666666668 0.248679672657 0 0 1 0 0 0
0 0 0.298284089648 0 0 1 0 0 0
0.333333333332 0.333333333332 0.347215231181 0 0 1 0 0 0
0.666666666668 0.666666666668 0.40002450674 0 0 1 0 0 0
0 0 0.4513523162 0 0 1 0 0 0
0.666666666668 0.666666666668 0.503638597926 0 0 1 0 0 0
0.333333333332 0.333333333332 0.551524819316 0 0 1 0 0 0
0 0 0.602603176308 0 0 1 0 0 0
0.666666666668 0.666666666668 0.651114978317 0 0 1 0 0 0
0.333333333332 0.333333333332 0.701331263774 0 0 1 0 0 0
0 0 0.750802116115 0 0 1 0 0 0
0.666666666668 0.666666666668 0.799977512701 0 0 1 0 0 0
0.333333333332 0.333333333332 0.850597025182 0 0 1 0 0 0
0 0 0.898615203381 0 0 1 0 0 0
0.666666666668 0.666666666668 0.94977280047 0 0 1 0 0 0
