ATOMIC_SPECIES
Mg 12 mg.gga.psp blps
Al 13 al.gga.psp blps

LATTICE_CONSTANT
7.437961491046642  // add lattice constant

LATTICE_VECTORS
1.000000000000    0.000000000000    0.000000000000    
0.000000000000    1.000000000000    0.000000000000    
0.000000000000    0.000000000000    1.000000000000    

ATOMIC_POSITIONS
Direct

Mg
0.0
1
    0.000000000000    0.000000000000    0.000000000000 1 1 1
Al
0.0
3
    0.000000000000    0.500000000000    0.500000000000 1 1 1
    0.500000000000    0.500000000000    0.000000000000 1 1 1
    0.500000000000    0.000000000000    0.500000000000 1 1 1
