ATOMIC_SPECIES
Mg 24.305 mg.gga.psp blps

LATTICE_CONSTANT
1.8897259885789233  // add lattice constant

LATTICE_VECTORS
3.185352589031    0.000000000000    0.000000000000    
-1.592676294515    2.758596262110    0.000000000000    
0.000000000000    0.000000000000    5.209394280882    

ATOMIC_POSITIONS
Direct

Mg
0.0
2
    0.000000000000    0.000000000000    0.000000000000 1 1 1
    0.666666666667    0.333333333333    0.500000000000 1 1 1
