%BLOCK LATTICE_CART
   2.805799707700000   0.000000000000000   0.000000000000000
   1.402899853850000   2.429893824799152   0.000000000000000
   0.000000000000003   0.000000000000002  46.409416000916522
%END BLOCK LATTICE_CART
%BLOCK POSITIONS_FRAC
    Al   0.000000000000000   0.000000000000000   0.000221261089167
    Al   0.333333333300000   0.333333333300000   0.049849808572310
    Al   0.666666666700000   0.666666666700000   0.099449309898606
    Al   0.000000000000000   0.000000000000000   0.149036348058309
    Al   0.333333333300000   0.333333333300000   0.199073428836532
    Al   0.866666666700000   0.866666666700000   0.250759903929867
    Al   0.200000000000000   0.200000000000000   0.300742432483860
    Al   0.533333333300000   0.533333333300000   0.350295024664645
    Al   0.866666666700000   0.866666666700000   0.399849130274434
    Al   0.200000000000000   0.200000000000000   0.449999970859068
    Al   0.866666666700000   0.866666666700000   0.500150847281343
    Al   0.533333333300000   0.533333333300000   0.549704981034841
    Al   0.200000000000000   0.200000000000000   0.599257501720928
    Al   0.866666666700000   0.866666666700000   0.649239922772584
    Al   0.333333333300000   0.333333333300000   0.700926358191907
    Al   1.000000000000000   1.000000000000000   0.750963392758852
    Al   0.666666666700000   0.666666666700000   0.800550460524487
    Al   0.333333333300000   0.333333333300000   0.850149949175613
    Al   0.000000000000000   0.000000000000000   0.899778412873082
    Al   0.666666666700000   0.666666666700000   0.949999808330518
%END BLOCK POSITIONS_FRAC
%BLOCK SPECIES_POT
    Al al_HC.lda.recpot                                                                       
%END BLOCK SPECIES_POT
%BLOCK ION_OPTIMIZATION
           0           0           1
           0           0           1
           0           0           1
           0           0           1
           0           0           1
           0           0           1
           0           0           1
           0           0           1
           0           0           1
           0           0           1
           0           0           1
           0           0           1
           0           0           1
           0           0           1
           0           0           1
           0           0           1
           0           0           1
           0           0           1
           0           0           1
           0           0           1
%END BLOCK ION_OPTIMIZATION
