Transformation
0.529176965773
32.125341805842  0.000000000000  0.000000000000
0.000000000000  34.015067794421  0.000000000000
0.000000000000  0.000000000000  202.860221604123
C  
1000  
Direct
0.633232000000  0.510021000000  0.006115000000  
0.643730000000  0.437064000000  0.012382000000  
0.643691000000  0.436042000000  0.025503000000  
0.633459000000  0.509332000000  0.032401000000  
0.632755000000  0.511442000000  0.044671000000  
0.643480000000  0.457004000000  0.052020000000  
0.638707000000  0.490384000000  0.064984000000  
0.643240000000  0.460477000000  0.074554000000  
0.637849000000  0.494015000000  0.087258000000  
0.643781000000  0.438668000000  0.094899000000  
0.643857000000  0.443206000000  0.107197000000  
0.632005000000  0.513608000000  0.113547000000  
0.631766000000  0.514284000000  0.126553000000  
0.643860000000  0.445038000000  0.133311000000  
0.643860000000  0.444995000000  0.146620000000  
0.631992000000  0.513644000000  0.153407000000  
0.631860000000  0.514018000000  0.166788000000  
0.643857000000  0.445824000000  0.173348000000  
0.643860000000  0.445024000000  0.186149000000  
0.633037000000  0.510607000000  0.193106000000  
0.634879000000  0.504836000000  0.205403000000  
0.643803000000  0.439531000000  0.211555000000  
0.643801000000  0.449425000000  0.223560000000  
0.626499000000  0.527630000000  0.225418000000  
0.625165000000  0.530639000000  0.247958000000  
0.643593000000  0.454970000000  0.253231000000  
0.643766000000  0.450708000000  0.267063000000  
0.628349000000  0.523236000000  0.274670000000  
0.629443000000  0.520499000000  0.287720000000  
0.643834000000  0.447815000000  0.293826000000  
0.643861000000  0.444799000000  0.306809000000  
0.632517000000  0.512137000000  0.314019000000  
0.632826000000  0.511231000000  0.327025000000  
0.643859000000  0.445311000000  0.333178000000  
0.643857000000  0.443174000000  0.346386000000  
0.632742000000  0.511480000000  0.353410000000  
0.633168000000  0.510212000000  0.366797000000  
0.643851000000  0.442424000000  0.373220000000  
0.643850000000  0.442265000000  0.386754000000  
0.633394000000  0.509531000000  0.393949000000  
0.634783000000  0.505153000000  0.407818000000  
0.643716000000  0.436680000000  0.413606000000  
0.643576000000  0.433575000000  0.427209000000  
0.637874000000  0.493913000000  0.433757000000  
0.637539000000  0.495256000000  0.446646000000  
0.643738000000  0.437311000000  0.453361000000  
0.643851000000  0.442399000000  0.466779000000  
0.632139000000  0.513227000000  0.472626000000  
0.630483000000  0.517791000000  0.486251000000  
0.643442000000  0.457611000000  0.493125000000  
0.643427000000  0.457853000000  0.506291000000  
0.630756000000  0.517061000000  0.512923000000  
0.631852000000  0.514042000000  0.526465000000  
0.643859000000  0.445428000000  0.532715000000  
0.643859000000  0.443489000000  0.546387000000  
0.632626000000  0.511818000000  0.553300000000  
0.632502000000  0.512182000000  0.566667000000  
0.643861000000  0.444444000000  0.573333000000  
0.643861000000  0.444444000000  0.586667000000  
0.632502000000  0.512182000000  0.593333000000  
0.632502000000  0.512182000000  0.606667000000  
0.643861000000  0.444444000000  0.613333000000  
0.643861000000  0.444444000000  0.626667000000  
0.632516000000  0.512139000000  0.633293000000  
0.632473000000  0.512264000000  0.646664000000  
0.643861000000  0.444444000000  0.653333000000  
0.643861000000  0.444444000000  0.666667000000  
0.632674000000  0.511678000000  0.673286000000  
0.632748000000  0.511462000000  0.686730000000  
0.643861000000  0.444857000000  0.693322000000  
0.643861000000  0.444771000000  0.707008000000  
0.632688000000  0.511637000000  0.713560000000  
0.632151000000  0.513194000000  0.727592000000  
0.643860000000  0.443817000000  0.734941000000  
0.643678000000  0.453151000000  0.749136000000  
0.632286000000  0.512805000000  0.753907000000  
0.632718000000  0.511551000000  0.766562000000  
0.643733000000  0.451738000000  0.771131000000  
0.643830000000  0.440820000000  0.785591000000  
0.633137000000  0.510306000000  0.793113000000  
0.633137000000  0.510307000000  0.807749000000  
0.643837000000  0.441257000000  0.814145000000  
0.643250000000  0.428550000000  0.828658000000  
0.620035000000  0.541185000000  0.838951000000  
0.641142000000  0.477897000000  0.839222000000  
0.643306000000  0.429286000000  0.850438000000  
0.643861000000  0.444160000000  0.864376000000  
0.630247000000  0.518414000000  0.870265000000  
0.629230000000  0.521041000000  0.884920000000  
0.643826000000  0.448250000000  0.892249000000  
0.643841000000  0.447353000000  0.906209000000  
0.632027000000  0.513546000000  0.912896000000  
0.632470000000  0.512273000000  0.926651000000  
0.643861000000  0.444577000000  0.933268000000  
0.643861000000  0.444374000000  0.946510000000  
0.632389000000  0.512509000000  0.953230000000  
0.632376000000  0.512546000000  0.966577000000  
0.643855000000  0.446061000000  0.972887000000  
0.643860000000  0.445252000000  0.985843000000  
0.632479000000  0.512248000000  0.992918000000  
0.549129000000  0.621134000000  0.006745000000  
0.599988000000  0.572697000000  0.013187000000  
0.601082000000  0.571253000000  0.026082000000  
0.549402000000  0.620943000000  0.033850000000  
0.560984000000  0.612339000000  0.047816000000  
0.605451000000  0.565224000000  0.051278000000  
0.611124000000  0.556690000000  0.062914000000  
0.565816000000  0.608400000000  0.069667000000  
0.557055000000  0.615385000000  0.084447000000  
0.603190000000  0.568397000000  0.092233000000  
0.598645000000  0.574437000000  0.106362000000  
0.540445000000  0.626872000000  0.113207000000  
0.541961000000  0.625910000000  0.127289000000  
0.597807000000  0.575504000000  0.133594000000  
0.599042000000  0.573926000000  0.147129000000  
0.546985000000  0.622602000000  0.154149000000  
0.543666000000  0.624808000000  0.167537000000  
0.594865000000  0.579150000000  0.174209000000  
0.597437000000  0.575972000000  0.187409000000  
0.547698000000  0.622118000000  0.196824000000  
0.560251000000  0.612917000000  0.209091000000  
0.611525000000  0.556052000000  0.213308000000  
0.610309000000  0.557970000000  0.235238000000  
0.552827000000  0.618515000000  0.236828000000  
0.542387000000  0.625637000000  0.248195000000  
0.592826000000  0.581587000000  0.255289000000  
0.591757000000  0.582836000000  0.267752000000  
0.529452000000  0.633377000000  0.272504000000  
0.495990000000  0.648704000000  0.284245000000  
0.594899000000  0.579109000000  0.296578000000  
0.601155000000  0.571156000000  0.308357000000  
0.552138000000  0.619011000000  0.314779000000  
0.549455000000  0.620907000000  0.327163000000  
0.599623000000  0.573174000000  0.333824000000  
0.599625000000  0.573170000000  0.346870000000  
0.549014000000  0.621213000000  0.353707000000  
0.550265000000  0.620341000000  0.367843000000  
0.600332000000  0.572245000000  0.374138000000  
0.602229000000  0.569712000000  0.388399000000  
0.553888000000  0.617743000000  0.396254000000  
0.564436000000  0.609547000000  0.412213000000  
0.607414000000  0.562369000000  0.415975000000  
0.615316000000  0.549765000000  0.429604000000  
0.534616000000  0.630422000000  0.437840000000  
0.583549000000  0.591847000000  0.439662000000  
0.610329000000  0.557939000000  0.450700000000  
0.600844000000  0.571569000000  0.464828000000  
0.548066000000  0.621866000000  0.470694000000  
0.546322000000  0.623050000000  0.485531000000  
0.597127000000  0.576361000000  0.492361000000  
0.597150000000  0.576333000000  0.506479000000  
0.547465000000  0.622277000000  0.513073000000  
0.547931000000  0.621958000000  0.526651000000  
0.599348000000  0.573531000000  0.533262000000  
0.599535000000  0.573288000000  0.546667000000  
0.548188000000  0.621783000000  0.553333000000  
0.548188000000  0.621783000000  0.566667000000  
0.599535000000  0.573288000000  0.573333000000  
0.599535000000  0.573288000000  0.586667000000  
0.548099000000  0.621844000000  0.593358000000  
0.548037000000  0.621886000000  0.606610000000  
0.599691000000  0.573085000000  0.613328000000  
0.599572000000  0.573240000000  0.626557000000  
0.548091000000  0.621849000000  0.632988000000  
0.546540000000  0.622903000000  0.646287000000  
0.598802000000  0.574235000000  0.653300000000  
0.598579000000  0.574522000000  0.666323000000  
0.547366000000  0.622344000000  0.672844000000  
0.548876000000  0.621309000000  0.686167000000  
0.601551000000  0.570626000000  0.693089000000  
0.601349000000  0.570897000000  0.706727000000  
0.553428000000  0.618079000000  0.712453000000  
0.542555000000  0.625529000000  0.725695000000  
0.595757000000  0.578061000000  0.734558000000  
0.602005000000  0.570015000000  0.749308000000  
0.522914000000  0.636876000000  0.763060000000  
0.570248000000  0.604588000000  0.761105000000  
0.606442000000  0.563794000000  0.771295000000  
0.601179000000  0.571124000000  0.786128000000  
0.550025000000  0.620509000000  0.792709000000  
0.548803000000  0.621359000000  0.806736000000  
0.599296000000  0.573598000000  0.814134000000  
0.591704000000  0.582897000000  0.827971000000  
0.539557000000  0.627428000000  0.832695000000  
0.543634000000  0.624829000000  0.844599000000  
0.593504000000  0.580784000000  0.848697000000  
0.594757000000  0.579280000000  0.861755000000  
0.530625000000  0.632721000000  0.864536000000  
0.530484000000  0.632800000000  0.887080000000  
0.593453000000  0.580844000000  0.892196000000  
0.596920000000  0.576621000000  0.906292000000  
0.545630000000  0.623513000000  0.913366000000  
0.547703000000  0.622114000000  0.926622000000  
0.599784000000  0.572963000000  0.933317000000  
0.599768000000  0.572984000000  0.946597000000  
0.550250000000  0.620351000000  0.953142000000  
0.550053000000  0.620489000000  0.966771000000  
0.599737000000  0.573025000000  0.973258000000  
0.599970000000  0.572721000000  0.986603000000  
0.549067000000  0.621177000000  0.993338000000  
0.413022000000  0.663643000000  0.006528000000  
0.484856000000  0.652493000000  0.013519000000  
0.484982000000  0.652454000000  0.027823000000  
0.413006000000  0.663644000000  0.034245000000  
0.400159000000  0.663373000000  0.048826000000  
0.453608000000  0.660055000000  0.059837000000  
0.519622000000  0.638540000000  0.059420000000  
0.402551000000  0.663474000000  0.070559000000  
0.414038000000  0.663636000000  0.084378000000  
0.484951000000  0.652464000000  0.090993000000  
0.478249000000  0.654461000000  0.106058000000  
0.392280000000  0.662873000000  0.111388000000  
0.356800000000  0.657411000000  0.124528000000  
0.476892000000  0.654840000000  0.136310000000  
0.486258000000  0.652050000000  0.148207000000  
0.415603000000  0.663617000000  0.154412000000  
0.408536000000  0.663625000000  0.165761000000  
0.465300000000  0.657736000000  0.173052000000  
0.432501000000  0.662770000000  0.185668000000  
0.469022000000  0.656872000000  0.195466000000  
0.437590000000  0.662286000000  0.207873000000  
0.500342000000  0.647056000000  0.215934000000  
0.493443000000  0.649625000000  0.227778000000  
0.415068000000  0.663625000000  0.233349000000  
0.410766000000  0.663645000000  0.245662000000  
0.480284000000  0.653877000000  0.253007000000  
0.474242000000  0.655556000000  0.264234000000  
0.409753000000  0.663638000000  0.269321000000  
0.409912000000  0.663640000000  0.280030000000  
0.526410000000  0.635038000000  0.294617000000  
0.496317000000  0.648583000000  0.306893000000  
0.411546000000  0.663647000000  0.312792000000  
0.411430000000  0.663646000000  0.326834000000  
0.484442000000  0.652623000000  0.333650000000  
0.484883000000  0.652485000000  0.347145000000  
0.415471000000  0.663619000000  0.354017000000  
0.418967000000  0.663541000000  0.368260000000  
0.489038000000  0.651141000000  0.374663000000  
0.489577000000  0.650961000000  0.389999000000  
0.419654000000  0.663520000000  0.396429000000  
0.413061000000  0.663643000000  0.411400000000  
0.461157000000  0.658626000000  0.421141000000  
0.513538000000  0.641449000000  0.422686000000  
0.404197000000  0.663530000000  0.429144000000  
0.404061000000  0.663526000000  0.443135000000  
0.473446000000  0.655764000000  0.448247000000  
0.481768000000  0.653439000000  0.463805000000  
0.410193000000  0.663642000000  0.471336000000  
0.412703000000  0.663645000000  0.485623000000  
0.482705000000  0.653157000000  0.492114000000  
0.482995000000  0.653068000000  0.506437000000  
0.412046000000  0.663647000000  0.513183000000  
0.412127000000  0.663646000000  0.526569000000  
0.483465000000  0.652925000000  0.533310000000  
0.483087000000  0.653040000000  0.546663000000  
0.410248000000  0.663642000000  0.553335000000  
0.409699000000  0.663638000000  0.566448000000  
0.482853000000  0.653112000000  0.573308000000  
0.482824000000  0.653120000000  0.586614000000  
0.410528000000  0.663644000000  0.593205000000  
0.409940000000  0.663640000000  0.606505000000  
0.483193000000  0.653008000000  0.613205000000  
0.482791000000  0.653130000000  0.625972000000  
0.412031000000  0.663647000000  0.632063000000  
0.404434000000  0.663537000000  0.644090000000  
0.477158000000  0.654766000000  0.652584000000  
0.476596000000  0.654922000000  0.665865000000  
0.406292000000  0.663586000000  0.673518000000  
0.417030000000  0.663590000000  0.687139000000  
0.489723000000  0.650911000000  0.692843000000  
0.494291000000  0.649322000000  0.706024000000  
0.433038000000  0.662724000000  0.713458000000  
0.405309000000  0.663562000000  0.737991000000  
0.459438000000  0.658973000000  0.726846000000  
0.417191000000  0.663587000000  0.750644000000  
0.463383000000  0.658157000000  0.758543000000  
0.433498000000  0.662684000000  0.769293000000  
0.483203000000  0.653005000000  0.774507000000  
0.489685000000  0.650924000000  0.786566000000  
0.417033000000  0.663590000000  0.793064000000  
0.413671000000  0.663639000000  0.806431000000  
0.481977000000  0.653376000000  0.813232000000  
0.480882000000  0.653701000000  0.826578000000  
0.412547000000  0.663646000000  0.833270000000  
0.417324000000  0.663584000000  0.847347000000  
0.497028000000  0.648320000000  0.852251000000  
0.500136000000  0.647136000000  0.874620000000  
0.414957000000  0.663626000000  0.876504000000  
0.404345000000  0.663535000000  0.888400000000  
0.474430000000  0.655506000000  0.894762000000  
0.478298000000  0.654447000000  0.907046000000  
0.407689000000  0.663613000000  0.913935000000  
0.410485000000  0.663643000000  0.927243000000  
0.483989000000  0.652763000000  0.933509000000  
0.486764000000  0.651887000000  0.946710000000  
0.423975000000  0.663343000000  0.953397000000  
0.424402000000  0.663322000000  0.966385000000  
0.488228000000  0.651410000000  0.973041000000  
0.485859000000  0.652177000000  0.986616000000  
0.414840000000  0.663627000000  0.992801000000  
0.279263000000  0.624415000000  0.005799000000  
0.344699000000  0.654296000000  0.012633000000  
0.342683000000  0.653712000000  0.026803000000  
0.277688000000  0.623371000000  0.032753000000  
0.272631000000  0.619894000000  0.046455000000  
0.331168000000  0.650006000000  0.053498000000  
0.332721000000  0.650543000000  0.066201000000  
0.279727000000  0.624719000000  0.072634000000  
0.281267000000  0.625717000000  0.084911000000  
0.340778000000  0.653142000000  0.091444000000  
0.336421000000  0.651775000000  0.103956000000  
0.271493000000  0.619084000000  0.110241000000  
0.278556000000  0.623949000000  0.122598000000  
0.391465000000  0.662807000000  0.134433000000  
0.357941000000  0.657671000000  0.146996000000  
0.279680000000  0.624689000000  0.152386000000  
0.276187000000  0.622360000000  0.165904000000  
0.337125000000  0.652003000000  0.171904000000  
0.346238000000  0.654729000000  0.183825000000  
0.281421000000  0.625815000000  0.192591000000  
0.283387000000  0.627062000000  0.205727000000  
0.351346000000  0.656089000000  0.213130000000  
0.345087000000  0.654406000000  0.226109000000  
0.275553000000  0.621927000000  0.232811000000  
0.275729000000  0.622048000000  0.246003000000  
0.339213000000  0.652662000000  0.252038000000  
0.343301000000  0.653893000000  0.263794000000  
0.291418000000  0.631877000000  0.271592000000  
0.296845000000  0.634890000000  0.294222000000  
0.326638000000  0.648370000000  0.284000000000  
0.327688000000  0.648759000000  0.306797000000  
0.271281000000  0.618932000000  0.314729000000  
0.274073000000  0.620906000000  0.327547000000  
0.338832000000  0.652543000000  0.333940000000  
0.341667000000  0.653410000000  0.347680000000  
0.278480000000  0.623899000000  0.355235000000  
0.289553000000  0.630797000000  0.370113000000  
0.355332000000  0.657068000000  0.374960000000  
0.353671000000  0.656669000000  0.388985000000  
0.285075000000  0.628111000000  0.392880000000  
0.261191000000  0.611257000000  0.407764000000  
0.300606000000  0.636871000000  0.419502000000  
0.354887000000  0.656963000000  0.420015000000  
0.257942000000  0.608591000000  0.430087000000  
0.269667000000  0.617763000000  0.444805000000  
0.335225000000  0.651384000000  0.450515000000  
0.339051000000  0.652611000000  0.465132000000  
0.274604000000  0.621275000000  0.472433000000  
0.275867000000  0.622142000000  0.486200000000  
0.340954000000  0.653196000000  0.492640000000  
0.341233000000  0.653280000000  0.506494000000  
0.278410000000  0.623853000000  0.512848000000  
0.276901000000  0.622843000000  0.525947000000  
0.340158000000  0.652953000000  0.532990000000  
0.337556000000  0.652140000000  0.546261000000  
0.270239000000  0.618179000000  0.552330000000  
0.267909000000  0.616464000000  0.565667000000  
0.338211000000  0.652348000000  0.573008000000  
0.339204000000  0.652659000000  0.586506000000  
0.279846000000  0.624797000000  0.592682000000  
0.276922000000  0.622857000000  0.606233000000  
0.334558000000  0.651163000000  0.613248000000  
0.336466000000  0.651790000000  0.625765000000  
0.280357000000  0.625129000000  0.635746000000  
0.291774000000  0.632080000000  0.657130000000  
0.319512000000  0.645587000000  0.647007000000  
0.323192000000  0.647057000000  0.669036000000  
0.272160000000  0.619560000000  0.677566000000  
0.287346000000  0.629490000000  0.690852000000  
0.354833000000  0.656950000000  0.694766000000  
0.360548000000  0.658243000000  0.707984000000  
0.292039000000  0.632231000000  0.713028000000  
0.273484000000  0.620494000000  0.727664000000  
0.323633000000  0.647229000000  0.737887000000  
0.299277000000  0.636181000000  0.752394000000  
0.244970000000  0.596873000000  0.755728000000  
0.347749000000  0.655144000000  0.757892000000  
0.372617000000  0.660506000000  0.770878000000  
0.346814000000  0.654889000000  0.784893000000  
0.279031000000  0.624263000000  0.790836000000  
0.280598000000  0.625285000000  0.805857000000  
0.345315000000  0.654471000000  0.812524000000  
0.344347000000  0.654195000000  0.826886000000  
0.281422000000  0.625816000000  0.833126000000  
0.278236000000  0.623737000000  0.846642000000  
0.347331000000  0.655030000000  0.854204000000  
0.343565000000  0.653970000000  0.867408000000  
0.271941000000  0.619404000000  0.873337000000  
0.268721000000  0.617067000000  0.886858000000  
0.334163000000  0.651031000000  0.894210000000  
0.333563000000  0.650829000000  0.907280000000  
0.269506000000  0.617644000000  0.914198000000  
0.270544000000  0.618401000000  0.928511000000  
0.339503000000  0.652752000000  0.934856000000  
0.353099000000  0.656529000000  0.948969000000  
0.248649000000  0.600384000000  0.960290000000  
0.305048000000  0.639101000000  0.960041000000  
0.354590000000  0.656892000000  0.970884000000  
0.342775000000  0.653739000000  0.985186000000  
0.277153000000  0.623013000000  0.991687000000  
0.195180000000  0.523235000000  0.008222000000  
0.231674000000  0.582722000000  0.012520000000  
0.231766000000  0.582828000000  0.025812000000  
0.197201000000  0.528021000000  0.029833000000  
0.189819000000  0.508563000000  0.043284000000  
0.221326000000  0.569746000000  0.052638000000  
0.227164000000  0.577311000000  0.067989000000  
0.181858000000  0.474482000000  0.079381000000  
0.201139000000  0.536525000000  0.078824000000  
0.230192000000  0.580981000000  0.089651000000  
0.223811000000  0.573049000000  0.103853000000  
0.190609000000  0.510953000000  0.110843000000  
0.191598000000  0.513818000000  0.125487000000  
0.227133000000  0.577272000000  0.131528000000  
0.228633000000  0.579112000000  0.145500000000  
0.191576000000  0.513755000000  0.152853000000  
0.191349000000  0.513108000000  0.166499000000  
0.223964000000  0.573249000000  0.172910000000  
0.225026000000  0.574619000000  0.186290000000  
0.191275000000  0.512897000000  0.193237000000  
0.191671000000  0.514022000000  0.206407000000  
0.225918000000  0.575752000000  0.212987000000  
0.225526000000  0.575256000000  0.226349000000  
0.191213000000  0.512718000000  0.233235000000  
0.191393000000  0.513234000000  0.246643000000  
0.225321000000  0.574995000000  0.253097000000  
0.228890000000  0.579423000000  0.266793000000  
0.194270000000  0.520968000000  0.273776000000  
0.192883000000  0.517355000000  0.286971000000  
0.228155000000  0.578530000000  0.296209000000  
0.221612000000  0.570133000000  0.308020000000  
0.189843000000  0.508636000000  0.313829000000  
0.189655000000  0.508054000000  0.327190000000  
0.223568000000  0.572731000000  0.334266000000  
0.223982000000  0.573271000000  0.348666000000  
0.190994000000  0.512083000000  0.354814000000  
0.187120000000  0.499545000000  0.369043000000  
0.205617000000  0.545159000000  0.380306000000  
0.247032000000  0.598860000000  0.380776000000  
0.186382000000  0.496786000000  0.391053000000  
0.188927000000  0.505739000000  0.405481000000  
0.215341000000  0.561215000000  0.411779000000  
0.215207000000  0.561013000000  0.425888000000  
0.188987000000  0.505935000000  0.432655000000  
0.190003000000  0.509128000000  0.446416000000  
0.221886000000  0.570502000000  0.452379000000  
0.223964000000  0.573249000000  0.466130000000  
0.190915000000  0.511853000000  0.473207000000  
0.190991000000  0.512075000000  0.486508000000  
0.224393000000  0.573804000000  0.493012000000  
0.224882000000  0.574433000000  0.506087000000  
0.192219000000  0.515551000000  0.512722000000  
0.193612000000  0.519278000000  0.524994000000  
0.227647000000  0.577907000000  0.531476000000  
0.221136000000  0.569488000000  0.543394000000  
0.185930000000  0.495016000000  0.545098000000  
0.185731000000  0.494218000000  0.567619000000  
0.219078000000  0.566642000000  0.572734000000  
0.222361000000  0.571138000000  0.585715000000  
0.191474000000  0.513464000000  0.593447000000  
0.199087000000  0.532217000000  0.603707000000  
0.230320000000  0.581133000000  0.609010000000  
0.198653000000  0.531273000000  0.615443000000  
0.209704000000  0.552294000000  0.635973000000  
0.196783000000  0.527060000000  0.648648000000  
0.228738000000  0.579239000000  0.658858000000  
0.220383000000  0.568458000000  0.671158000000  
0.189993000000  0.509096000000  0.676001000000  
0.186264000000  0.496329000000  0.689440000000  
0.204837000000  0.543722000000  0.701000000000  
0.249087000000  0.600792000000  0.701334000000  
0.186882000000  0.498669000000  0.711228000000  
0.189757000000  0.508368000000  0.725393000000  
0.219403000000  0.567097000000  0.732384000000  
0.212396000000  0.556674000000  0.747114000000  
0.186440000000  0.497009000000  0.752435000000  
0.187315000000  0.500246000000  0.766166000000  
0.214692000000  0.560234000000  0.769686000000  
0.225199000000  0.574840000000  0.784698000000  
0.191279000000  0.512908000000  0.793728000000  
0.196491000000  0.526378000000  0.808086000000  
0.232919000000  0.584155000000  0.812609000000  
0.232542000000  0.583723000000  0.826086000000  
0.196871000000  0.527262000000  0.830269000000  
0.191229000000  0.512764000000  0.843896000000  
0.224464000000  0.573897000000  0.852433000000  
0.220941000000  0.569222000000  0.865584000000  
0.187141000000  0.499621000000  0.871765000000  
0.186385000000  0.496796000000  0.886057000000  
0.217332000000  0.564150000000  0.893431000000  
0.217657000000  0.564619000000  0.907325000000  
0.187171000000  0.499730000000  0.914447000000  
0.188205000000  0.503348000000  0.928476000000  
0.220742000000  0.568951000000  0.935284000000  
0.215619000000  0.561630000000  0.949873000000  
0.187767000000  0.501846000000  0.954765000000  
0.188018000000  0.502711000000  0.967613000000  
0.215445000000  0.561370000000  0.971794000000  
0.223487000000  0.572626000000  0.985762000000  
0.189969000000  0.509022000000  0.994598000000  
0.216739000000  0.325603000000  0.006426000000  
0.181624000000  0.416049000000  0.021939000000  
0.182731000000  0.479941000000  0.019482000000  
0.186914000000  0.390100000000  0.033465000000  
0.185711000000  0.394750000000  0.055941000000  
0.180102000000  0.431051000000  0.045234000000  
0.181791000000  0.414866000000  0.069816000000  
0.196769000000  0.361863000000  0.075216000000  
0.195266000000  0.365443000000  0.087203000000  
0.180271000000  0.428660000000  0.091052000000  
0.179672000000  0.443224000000  0.105049000000  
0.191116000000  0.376450000000  0.112813000000  
0.190602000000  0.377958000000  0.126393000000  
0.179670000000  0.445319000000  0.132818000000  
0.179674000000  0.445993000000  0.146345000000  
0.190947000000  0.376942000000  0.153224000000  
0.190899000000  0.377082000000  0.166601000000  
0.179668000000  0.444555000000  0.173267000000  
0.179668000000  0.444408000000  0.186610000000  
0.191028000000  0.376707000000  0.193333000000  
0.191028000000  0.376707000000  0.206667000000  
0.179668000000  0.444444000000  0.213333000000  
0.179668000000  0.444409000000  0.226600000000  
0.190972000000  0.376871000000  0.233285000000  
0.190827000000  0.377294000000  0.246272000000  
0.179704000000  0.448282000000  0.253115000000  
0.179711000000  0.448672000000  0.266275000000  
0.188732000000  0.383785000000  0.271849000000  
0.192148000000  0.373534000000  0.283723000000  
0.179719000000  0.439866000000  0.292847000000  
0.179861000000  0.435508000000  0.306142000000  
0.194242000000  0.367994000000  0.313066000000  
0.192537000000  0.372467000000  0.326830000000  
0.179672000000  0.443153000000  0.333537000000  
0.179673000000  0.443055000000  0.347065000000  
0.191773000000  0.374579000000  0.353568000000  
0.192143000000  0.373548000000  0.366675000000  
0.179956000000  0.433539000000  0.373392000000  
0.180027000000  0.432267000000  0.386367000000  
0.192736000000  0.371929000000  0.393011000000  
0.191885000000  0.374265000000  0.406510000000  
0.179728000000  0.439456000000  0.412628000000  
0.179707000000  0.440412000000  0.426531000000  
0.191354000000  0.375765000000  0.433225000000  
0.191114000000  0.376458000000  0.446675000000  
0.179669000000  0.444052000000  0.453256000000  
0.179668000000  0.444444000000  0.466667000000  
0.191024000000  0.376717000000  0.473339000000  
0.191028000000  0.376707000000  0.486667000000  
0.179669000000  0.444823000000  0.493266000000  
0.179677000000  0.446351000000  0.506407000000  
0.189871000000  0.380165000000  0.513358000000  
0.188356000000  0.385031000000  0.527109000000  
0.180586000000  0.463916000000  0.532490000000  
0.180446000000  0.462373000000  0.554845000000  
0.189419000000  0.381576000000  0.556621000000  
0.192887000000  0.371525000000  0.568805000000  
0.179773000000  0.437851000000  0.575344000000  
0.179668000000  0.444490000000  0.588499000000  
0.189501000000  0.381318000000  0.595066000000  
0.193266000000  0.370518000000  0.609175000000  
0.180965000000  0.421302000000  0.622472000000  
0.188806000000  0.505346000000  0.623633000000  
0.194856000000  0.366453000000  0.631732000000  
0.192919000000  0.371439000000  0.645219000000  
0.179700000000  0.448063000000  0.653305000000  
0.179700000000  0.440844000000  0.667368000000  
0.192392000000  0.372863000000  0.673202000000  
0.193399000000  0.370169000000  0.686834000000  
0.180060000000  0.431714000000  0.693679000000  
0.180048000000  0.431916000000  0.706618000000  
0.192635000000  0.372203000000  0.713505000000  
0.190974000000  0.376864000000  0.726595000000  
0.179688000000  0.441583000000  0.732444000000  
0.179690000000  0.441451000000  0.746719000000  
0.190930000000  0.376993000000  0.753087000000  
0.191919000000  0.374170000000  0.767211000000  
0.179778000000  0.437695000000  0.773582000000  
0.179711000000  0.440236000000  0.787811000000  
0.194240000000  0.367998000000  0.794463000000  
0.199297000000  0.356220000000  0.808001000000  
0.183352000000  0.405545000000  0.818843000000  
0.182471000000  0.478405000000  0.818923000000  
0.195979000000  0.363723000000  0.828499000000  
0.192960000000  0.371329000000  0.840926000000  
0.179754000000  0.438494000000  0.849043000000  
0.180453000000  0.426439000000  0.862369000000  
0.204872000000  0.345102000000  0.866208000000  
0.202739000000  0.349168000000  0.888377000000  
0.180532000000  0.425553000000  0.893498000000  
0.180349000000  0.427672000000  0.907468000000  
0.200589000000  0.353496000000  0.913647000000  
0.213069000000  0.331156000000  0.926316000000  
0.179762000000  0.438203000000  0.937154000000  
0.179675000000  0.446124000000  0.949194000000  
0.189540000000  0.381194000000  0.955345000000  
0.191465000000  0.375451000000  0.967764000000  
0.179759000000  0.438326000000  0.974449000000  
0.179822000000  0.436475000000  0.988148000000  
0.198998000000  0.356866000000  0.993697000000  
0.274614000000  0.267608000000  0.004281000000  
0.201973000000  0.350681000000  0.016929000000  
0.216678000000  0.325692000000  0.029179000000  
0.265439000000  0.274293000000  0.034900000000  
0.268410000000  0.272052000000  0.048583000000  
0.220444000000  0.320347000000  0.057246000000  
0.227156000000  0.311588000000  0.069047000000  
0.269257000000  0.271427000000  0.074277000000  