ATOMIC_SPECIES
C 12.011 C_ONCV_PBE-1.0.upf

NUMERICAL_ORBITAL
C_gga_8au_60Ry_2s2p1d.orb

LATTICE_CONSTANT
1

LATTICE_VECTORS
32.1253418058417  0.00000000000000  0.000000000000000
0.00000000000000  34.0150677944206  0.000000000000000
0.00000000000000  0.00000000000000  202.8602216041227

ATOMIC_POSITIONS
Direct

C
0
1000
0.6332320000  0.5100210000  0.0061150000  1  1  1
0.6437300000  0.4370640000  0.0123820000  1  1  1
0.6436910000  0.4360420000  0.0255030000  1  1  1
0.6334590000  0.5093320000  0.0324010000  1  1  1
0.6327550000  0.5114420000  0.0446710000  1  1  1
0.6434800000  0.4570040000  0.0520200000  1  1  1
0.6387070000  0.4903840000  0.0649840000  1  1  1
0.6432400000  0.4604770000  0.0745540000  1  1  1
0.6378490000  0.4940150000  0.0872580000  1  1  1
0.6437810000  0.4386680000  0.0948990000  1  1  1
0.6438570000  0.4432060000  0.1071970000  1  1  1
0.6320050000  0.5136080000  0.1135470000  1  1  1
0.6317660000  0.5142840000  0.1265530000  1  1  1
0.6438600000  0.4450380000  0.1333110000  1  1  1
0.6438600000  0.4449950000  0.1466200000  1  1  1
0.6319920000  0.5136440000  0.1534070000  1  1  1
0.6318600000  0.5140180000  0.1667880000  1  1  1
0.6438570000  0.4458240000  0.1733480000  1  1  1
0.6438600000  0.4450240000  0.1861490000  1  1  1
0.6330370000  0.5106070000  0.1931060000  1  1  1
0.6348790000  0.5048360000  0.2054030000  1  1  1
0.6438030000  0.4395310000  0.2115550000  1  1  1
0.6438010000  0.4494250000  0.2235600000  1  1  1
0.6264990000  0.5276300000  0.2254180000  1  1  1
0.6251650000  0.5306390000  0.2479580000  1  1  1
0.6435930000  0.4549700000  0.2532310000  1  1  1
0.6437660000  0.4507080000  0.2670630000  1  1  1
0.6283490000  0.5232360000  0.2746700000  1  1  1
0.6294430000  0.5204990000  0.2877200000  1  1  1
0.6438340000  0.4478150000  0.2938260000  1  1  1
0.6438610000  0.4447990000  0.3068090000  1  1  1
0.6325170000  0.5121370000  0.3140190000  1  1  1
0.6328260000  0.5112310000  0.3270250000  1  1  1
0.6438590000  0.4453110000  0.3331780000  1  1  1
0.6438570000  0.4431740000  0.3463860000  1  1  1
0.6327420000  0.5114800000  0.3534100000  1  1  1
0.6331680000  0.5102120000  0.3667970000  1  1  1
0.6438510000  0.4424240000  0.3732200000  1  1  1
0.6438500000  0.4422650000  0.3867540000  1  1  1
0.6333940000  0.5095310000  0.3939490000  1  1  1
0.6347830000  0.5051530000  0.4078180000  1  1  1
0.6437160000  0.4366800000  0.4136060000  1  1  1
0.6435760000  0.4335750000  0.4272090000  1  1  1
0.6378740000  0.4939130000  0.4337570000  1  1  1
0.6375390000  0.4952560000  0.4466460000  1  1  1
0.6437380000  0.4373110000  0.4533610000  1  1  1
0.6438510000  0.4423990000  0.4667790000  1  1  1
0.6321390000  0.5132270000  0.4726260000  1  1  1
0.6304830000  0.5177910000  0.4862510000  1  1  1
0.6434420000  0.4576110000  0.4931250000  1  1  1
0.6434270000  0.4578530000  0.5062910000  1  1  1
0.6307560000  0.5170610000  0.5129230000  1  1  1
0.6318520000  0.5140420000  0.5264650000  1  1  1
0.6438590000  0.4454280000  0.5327150000  1  1  1
0.6438590000  0.4434890000  0.5463870000  1  1  1
0.6326260000  0.5118180000  0.5533000000  1  1  1
0.6325020000  0.5121820000  0.5666670000  1  1  1
0.6438610000  0.4444440000  0.5733330000  1  1  1
0.6438610000  0.4444440000  0.5866670000  1  1  1
0.6325020000  0.5121820000  0.5933330000  1  1  1
0.6325020000  0.5121820000  0.6066670000  1  1  1
0.6438610000  0.4444440000  0.6133330000  1  1  1
0.6438610000  0.4444440000  0.6266670000  1  1  1
0.6325160000  0.5121390000  0.6332930000  1  1  1
0.6324730000  0.5122640000  0.6466640000  1  1  1
0.6438610000  0.4444440000  0.6533330000  1  1  1
0.6438610000  0.4444440000  0.6666670000  1  1  1
0.6326740000  0.5116780000  0.6732860000  1  1  1
0.6327480000  0.5114620000  0.6867300000  1  1  1
0.6438610000  0.4448570000  0.6933220000  1  1  1
0.6438610000  0.4447710000  0.7070080000  1  1  1
0.6326880000  0.5116370000  0.7135600000  1  1  1
0.6321510000  0.5131940000  0.7275920000  1  1  1
0.6438600000  0.4438170000  0.7349410000  1  1  1
0.6436780000  0.4531510000  0.7491360000  1  1  1
0.6322860000  0.5128050000  0.7539070000  1  1  1
0.6327180000  0.5115510000  0.7665620000  1  1  1
0.6437330000  0.4517380000  0.7711310000  1  1  1
0.6438300000  0.4408200000  0.7855910000  1  1  1
0.6331370000  0.5103060000  0.7931130000  1  1  1
0.6331370000  0.5103070000  0.8077490000  1  1  1
0.6438370000  0.4412570000  0.8141450000  1  1  1
0.6432500000  0.4285500000  0.8286580000  1  1  1
0.6200350000  0.5411850000  0.8389510000  1  1  1
0.6411420000  0.4778970000  0.8392220000  1  1  1
0.6433060000  0.4292860000  0.8504380000  1  1  1
0.6438610000  0.4441600000  0.8643760000  1  1  1
0.6302470000  0.5184140000  0.8702650000  1  1  1
0.6292300000  0.5210410000  0.8849200000  1  1  1
0.6438260000  0.4482500000  0.8922490000  1  1  1
0.6438410000  0.4473530000  0.9062090000  1  1  1
0.6320270000  0.5135460000  0.9128960000  1  1  1
0.6324700000  0.5122730000  0.9266510000  1  1  1
0.6438610000  0.4445770000  0.9332680000  1  1  1
0.6438610000  0.4443740000  0.9465100000  1  1  1
0.6323890000  0.5125090000  0.9532300000  1  1  1
0.6323760000  0.5125460000  0.9665770000  1  1  1
0.6438550000  0.4460610000  0.9728870000  1  1  1
0.6438600000  0.4452520000  0.9858430000  1  1  1
0.6324790000  0.5122480000  0.9929180000  1  1  1
0.5491290000  0.6211340000  0.0067450000  1  1  1
0.5999880000  0.5726970000  0.0131870000  1  1  1
0.6010820000  0.5712530000  0.0260820000  1  1  1
0.5494020000  0.6209430000  0.0338500000  1  1  1
0.5609840000  0.6123390000  0.0478160000  1  1  1
0.6054510000  0.5652240000  0.0512780000  1  1  1
0.6111240000  0.5566900000  0.0629140000  1  1  1
0.5658160000  0.6084000000  0.0696670000  1  1  1
0.5570550000  0.6153850000  0.0844470000  1  1  1
0.6031900000  0.5683970000  0.0922330000  1  1  1
0.5986450000  0.5744370000  0.1063620000  1  1  1
0.5404450000  0.6268720000  0.1132070000  1  1  1
0.5419610000  0.6259100000  0.1272890000  1  1  1
0.5978070000  0.5755040000  0.1335940000  1  1  1
0.5990420000  0.5739260000  0.1471290000  1  1  1
0.5469850000  0.6226020000  0.1541490000  1  1  1
0.5436660000  0.6248080000  0.1675370000  1  1  1
0.5948650000  0.5791500000  0.1742090000  1  1  1
0.5974370000  0.5759720000  0.1874090000  1  1  1
0.5476980000  0.6221180000  0.1968240000  1  1  1
0.5602510000  0.6129170000  0.2090910000  1  1  1
0.6115250000  0.5560520000  0.2133080000  1  1  1
0.6103090000  0.5579700000  0.2352380000  1  1  1
0.5528270000  0.6185150000  0.2368280000  1  1  1
0.5423870000  0.6256370000  0.2481950000  1  1  1
0.5928260000  0.5815870000  0.2552890000  1  1  1
0.5917570000  0.5828360000  0.2677520000  1  1  1
0.5294520000  0.6333770000  0.2725040000  1  1  1
0.4959900000  0.6487040000  0.2842450000  1  1  1
0.5948990000  0.5791090000  0.2965780000  1  1  1
0.6011550000  0.5711560000  0.3083570000  1  1  1
0.5521380000  0.6190110000  0.3147790000  1  1  1
0.5494550000  0.6209070000  0.3271630000  1  1  1
0.5996230000  0.5731740000  0.3338240000  1  1  1
0.5996250000  0.5731700000  0.3468700000  1  1  1
0.5490140000  0.6212130000  0.3537070000  1  1  1
0.5502650000  0.6203410000  0.3678430000  1  1  1
0.6003320000  0.5722450000  0.3741380000  1  1  1
0.6022290000  0.5697120000  0.3883990000  1  1  1
0.5538880000  0.6177430000  0.3962540000  1  1  1
0.5644360000  0.6095470000  0.4122130000  1  1  1
0.6074140000  0.5623690000  0.4159750000  1  1  1
0.6153160000  0.5497650000  0.4296040000  1  1  1
0.5346160000  0.6304220000  0.4378400000  1  1  1
0.5835490000  0.5918470000  0.4396620000  1  1  1
0.6103290000  0.5579390000  0.4507000000  1  1  1
0.6008440000  0.5715690000  0.4648280000  1  1  1
0.5480660000  0.6218660000  0.4706940000  1  1  1
0.5463220000  0.6230500000  0.4855310000  1  1  1
0.5971270000  0.5763610000  0.4923610000  1  1  1
0.5971500000  0.5763330000  0.5064790000  1  1  1
0.5474650000  0.6222770000  0.5130730000  1  1  1
0.5479310000  0.6219580000  0.5266510000  1  1  1
0.5993480000  0.5735310000  0.5332620000  1  1  1
0.5995350000  0.5732880000  0.5466670000  1  1  1
0.5481880000  0.6217830000  0.5533330000  1  1  1
0.5481880000  0.6217830000  0.5666670000  1  1  1
0.5995350000  0.5732880000  0.5733330000  1  1  1
0.5995350000  0.5732880000  0.5866670000  1  1  1
0.5480990000  0.6218440000  0.5933580000  1  1  1
0.5480370000  0.6218860000  0.6066100000  1  1  1
0.5996910000  0.5730850000  0.6133280000  1  1  1
0.5995720000  0.5732400000  0.6265570000  1  1  1
0.5480910000  0.6218490000  0.6329880000  1  1  1
0.5465400000  0.6229030000  0.6462870000  1  1  1
0.5988020000  0.5742350000  0.6533000000  1  1  1
0.5985790000  0.5745220000  0.6663230000  1  1  1
0.5473660000  0.6223440000  0.6728440000  1  1  1
0.5488760000  0.6213090000  0.6861670000  1  1  1
0.6015510000  0.5706260000  0.6930890000  1  1  1
0.6013490000  0.5708970000  0.7067270000  1  1  1
0.5534280000  0.6180790000  0.7124530000  1  1  1
0.5425550000  0.6255290000  0.7256950000  1  1  1
0.5957570000  0.5780610000  0.7345580000  1  1  1
0.6020050000  0.5700150000  0.7493080000  1  1  1
0.5229140000  0.6368760000  0.7630600000  1  1  1
0.5702480000  0.6045880000  0.7611050000  1  1  1
0.6064420000  0.5637940000  0.7712950000  1  1  1
0.6011790000  0.5711240000  0.7861280000  1  1  1
0.5500250000  0.6205090000  0.7927090000  1  1  1
0.5488030000  0.6213590000  0.8067360000  1  1  1
0.5992960000  0.5735980000  0.8141340000  1  1  1
0.5917040000  0.5828970000  0.8279710000  1  1  1
0.5395570000  0.6274280000  0.8326950000  1  1  1
0.5436340000  0.6248290000  0.8445990000  1  1  1
0.5935040000  0.5807840000  0.8486970000  1  1  1
0.5947570000  0.5792800000  0.8617550000  1  1  1
0.5306250000  0.6327210000  0.8645360000  1  1  1
0.5304840000  0.6328000000  0.8870800000  1  1  1
0.5934530000  0.5808440000  0.8921960000  1  1  1
0.5969200000  0.5766210000  0.9062920000  1  1  1
0.5456300000  0.6235130000  0.9133660000  1  1  1
0.5477030000  0.6221140000  0.9266220000  1  1  1
0.5997840000  0.5729630000  0.9333170000  1  1  1
0.5997680000  0.5729840000  0.9465970000  1  1  1
0.5502500000  0.6203510000  0.9531420000  1  1  1
0.5500530000  0.6204890000  0.9667710000  1  1  1
0.5997370000  0.5730250000  0.9732580000  1  1  1
0.5999700000  0.5727210000  0.9866030000  1  1  1
0.5490670000  0.6211770000  0.9933380000  1  1  1
0.4130220000  0.6636430000  0.0065280000  1  1  1
0.4848560000  0.6524930000  0.0135190000  1  1  1
0.4849820000  0.6524540000  0.0278230000  1  1  1
0.4130060000  0.6636440000  0.0342450000  1  1  1
0.4001590000  0.6633730000  0.0488260000  1  1  1
0.4536080000  0.6600550000  0.0598370000  1  1  1
0.5196220000  0.6385400000  0.0594200000  1  1  1
0.4025510000  0.6634740000  0.0705590000  1  1  1
0.4140380000  0.6636360000  0.0843780000  1  1  1
0.4849510000  0.6524640000  0.0909930000  1  1  1
0.4782490000  0.6544610000  0.1060580000  1  1  1
0.3922800000  0.6628730000  0.1113880000  1  1  1
0.3568000000  0.6574110000  0.1245280000  1  1  1
0.4768920000  0.6548400000  0.1363100000  1  1  1
0.4862580000  0.6520500000  0.1482070000  1  1  1
0.4156030000  0.6636170000  0.1544120000  1  1  1
0.4085360000  0.6636250000  0.1657610000  1  1  1
0.4653000000  0.6577360000  0.1730520000  1  1  1
0.4325010000  0.6627700000  0.1856680000  1  1  1
0.4690220000  0.6568720000  0.1954660000  1  1  1
0.4375900000  0.6622860000  0.2078730000  1  1  1
0.5003420000  0.6470560000  0.2159340000  1  1  1
0.4934430000  0.6496250000  0.2277780000  1  1  1
0.4150680000  0.6636250000  0.2333490000  1  1  1
0.4107660000  0.6636450000  0.2456620000  1  1  1
0.4802840000  0.6538770000  0.2530070000  1  1  1
0.4742420000  0.6555560000  0.2642340000  1  1  1
0.4097530000  0.6636380000  0.2693210000  1  1  1
0.4099120000  0.6636400000  0.2800300000  1  1  1
0.5264100000  0.6350380000  0.2946170000  1  1  1
0.4963170000  0.6485830000  0.3068930000  1  1  1
0.4115460000  0.6636470000  0.3127920000  1  1  1
0.4114300000  0.6636460000  0.3268340000  1  1  1
0.4844420000  0.6526230000  0.3336500000  1  1  1
0.4848830000  0.6524850000  0.3471450000  1  1  1
0.4154710000  0.6636190000  0.3540170000  1  1  1
0.4189670000  0.6635410000  0.3682600000  1  1  1
0.4890380000  0.6511410000  0.3746630000  1  1  1
0.4895770000  0.6509610000  0.3899990000  1  1  1
0.4196540000  0.6635200000  0.3964290000  1  1  1
0.4130610000  0.6636430000  0.4114000000  1  1  1
0.4611570000  0.6586260000  0.4211410000  1  1  1
0.5135380000  0.6414490000  0.4226860000  1  1  1
0.4041970000  0.6635300000  0.4291440000  1  1  1
0.4040610000  0.6635260000  0.4431350000  1  1  1
0.4734460000  0.6557640000  0.4482470000  1  1  1
0.4817680000  0.6534390000  0.4638050000  1  1  1
0.4101930000  0.6636420000  0.4713360000  1  1  1
0.4127030000  0.6636450000  0.4856230000  1  1  1
0.4827050000  0.6531570000  0.4921140000  1  1  1
0.4829950000  0.6530680000  0.5064370000  1  1  1
0.4120460000  0.6636470000  0.5131830000  1  1  1
0.4121270000  0.6636460000  0.5265690000  1  1  1
0.4834650000  0.6529250000  0.5333100000  1  1  1
0.4830870000  0.6530400000  0.5466630000  1  1  1
0.4102480000  0.6636420000  0.5533350000  1  1  1
0.4096990000  0.6636380000  0.5664480000  1  1  1
0.4828530000  0.6531120000  0.5733080000  1  1  1
0.4828240000  0.6531200000  0.5866140000  1  1  1
0.4105280000  0.6636440000  0.5932050000  1  1  1
0.4099400000  0.6636400000  0.6065050000  1  1  1
0.4831930000  0.6530080000  0.6132050000  1  1  1
0.4827910000  0.6531300000  0.6259720000  1  1  1
0.4120310000  0.6636470000  0.6320630000  1  1  1
0.4044340000  0.6635370000  0.6440900000  1  1  1
0.4771580000  0.6547660000  0.6525840000  1  1  1
0.4765960000  0.6549220000  0.6658650000  1  1  1
0.4062920000  0.6635860000  0.6735180000  1  1  1
0.4170300000  0.6635900000  0.6871390000  1  1  1
0.4897230000  0.6509110000  0.6928430000  1  1  1
0.4942910000  0.6493220000  0.7060240000  1  1  1
0.4330380000  0.6627240000  0.7134580000  1  1  1
0.4053090000  0.6635620000  0.7379910000  1  1  1
0.4594380000  0.6589730000  0.7268460000  1  1  1
0.4171910000  0.6635870000  0.7506440000  1  1  1
0.4633830000  0.6581570000  0.7585430000  1  1  1
0.4334980000  0.6626840000  0.7692930000  1  1  1
0.4832030000  0.6530050000  0.7745070000  1  1  1
0.4896850000  0.6509240000  0.7865660000  1  1  1
0.4170330000  0.6635900000  0.7930640000  1  1  1
0.4136710000  0.6636390000  0.8064310000  1  1  1
0.4819770000  0.6533760000  0.8132320000  1  1  1
0.4808820000  0.6537010000  0.8265780000  1  1  1
0.4125470000  0.6636460000  0.8332700000  1  1  1
0.4173240000  0.6635840000  0.8473470000  1  1  1
0.4970280000  0.6483200000  0.8522510000  1  1  1
0.5001360000  0.6471360000  0.8746200000  1  1  1
0.4149570000  0.6636260000  0.8765040000  1  1  1
0.4043450000  0.6635350000  0.8884000000  1  1  1
0.4744300000  0.6555060000  0.8947620000  1  1  1
0.4782980000  0.6544470000  0.9070460000  1  1  1
0.4076890000  0.6636130000  0.9139350000  1  1  1
0.4104850000  0.6636430000  0.9272430000  1  1  1
0.4839890000  0.6527630000  0.9335090000  1  1  1
0.4867640000  0.6518870000  0.9467100000  1  1  1
0.4239750000  0.6633430000  0.9533970000  1  1  1
0.4244020000  0.6633220000  0.9663850000  1  1  1
0.4882280000  0.6514100000  0.9730410000  1  1  1
0.4858590000  0.6521770000  0.9866160000  1  1  1
0.4148400000  0.6636270000  0.9928010000  1  1  1
0.2792630000  0.6244150000  0.0057990000  1  1  1
0.3446990000  0.6542960000  0.0126330000  1  1  1
0.3426830000  0.6537120000  0.0268030000  1  1  1
0.2776880000  0.6233710000  0.0327530000  1  1  1
0.2726310000  0.6198940000  0.0464550000  1  1  1
0.3311680000  0.6500060000  0.0534980000  1  1  1
0.3327210000  0.6505430000  0.0662010000  1  1  1
0.2797270000  0.6247190000  0.0726340000  1  1  1
0.2812670000  0.6257170000  0.0849110000  1  1  1
0.3407780000  0.6531420000  0.0914440000  1  1  1
0.3364210000  0.6517750000  0.1039560000  1  1  1
0.2714930000  0.6190840000  0.1102410000  1  1  1
0.2785560000  0.6239490000  0.1225980000  1  1  1
0.3914650000  0.6628070000  0.1344330000  1  1  1
0.3579410000  0.6576710000  0.1469960000  1  1  1
0.2796800000  0.6246890000  0.1523860000  1  1  1
0.2761870000  0.6223600000  0.1659040000  1  1  1
0.3371250000  0.6520030000  0.1719040000  1  1  1
0.3462380000  0.6547290000  0.1838250000  1  1  1
0.2814210000  0.6258150000  0.1925910000  1  1  1
0.2833870000  0.6270620000  0.2057270000  1  1  1
0.3513460000  0.6560890000  0.2131300000  1  1  1
0.3450870000  0.6544060000  0.2261090000  1  1  1
0.2755530000  0.6219270000  0.2328110000  1  1  1
0.2757290000  0.6220480000  0.2460030000  1  1  1
0.3392130000  0.6526620000  0.2520380000  1  1  1
0.3433010000  0.6538930000  0.2637940000  1  1  1
0.2914180000  0.6318770000  0.2715920000  1  1  1
0.2968450000  0.6348900000  0.2942220000  1  1  1
0.3266380000  0.6483700000  0.2840000000  1  1  1
0.3276880000  0.6487590000  0.3067970000  1  1  1
0.2712810000  0.6189320000  0.3147290000  1  1  1
0.2740730000  0.6209060000  0.3275470000  1  1  1
0.3388320000  0.6525430000  0.3339400000  1  1  1
0.3416670000  0.6534100000  0.3476800000  1  1  1
0.2784800000  0.6238990000  0.3552350000  1  1  1
0.2895530000  0.6307970000  0.3701130000  1  1  1
0.3553320000  0.6570680000  0.3749600000  1  1  1
0.3536710000  0.6566690000  0.3889850000  1  1  1
0.2850750000  0.6281110000  0.3928800000  1  1  1
0.2611910000  0.6112570000  0.4077640000  1  1  1
0.3006060000  0.6368710000  0.4195020000  1  1  1
0.3548870000  0.6569630000  0.4200150000  1  1  1
0.2579420000  0.6085910000  0.4300870000  1  1  1
0.2696670000  0.6177630000  0.4448050000  1  1  1
0.3352250000  0.6513840000  0.4505150000  1  1  1
0.3390510000  0.6526110000  0.4651320000  1  1  1
0.2746040000  0.6212750000  0.4724330000  1  1  1
0.2758670000  0.6221420000  0.4862000000  1  1  1
0.3409540000  0.6531960000  0.4926400000  1  1  1
0.3412330000  0.6532800000  0.5064940000  1  1  1
0.2784100000  0.6238530000  0.5128480000  1  1  1
0.2769010000  0.6228430000  0.5259470000  1  1  1
0.3401580000  0.6529530000  0.5329900000  1  1  1
0.3375560000  0.6521400000  0.5462610000  1  1  1
0.2702390000  0.6181790000  0.5523300000  1  1  1
0.2679090000  0.6164640000  0.5656670000  1  1  1
0.3382110000  0.6523480000  0.5730080000  1  1  1
0.3392040000  0.6526590000  0.5865060000  1  1  1
0.2798460000  0.6247970000  0.5926820000  1  1  1
0.2769220000  0.6228570000  0.6062330000  1  1  1
0.3345580000  0.6511630000  0.6132480000  1  1  1
0.3364660000  0.6517900000  0.6257650000  1  1  1
0.2803570000  0.6251290000  0.6357460000  1  1  1
0.2917740000  0.6320800000  0.6571300000  1  1  1
0.3195120000  0.6455870000  0.6470070000  1  1  1
0.3231920000  0.6470570000  0.6690360000  1  1  1
0.2721600000  0.6195600000  0.6775660000  1  1  1
0.2873460000  0.6294900000  0.6908520000  1  1  1
0.3548330000  0.6569500000  0.6947660000  1  1  1
0.3605480000  0.6582430000  0.7079840000  1  1  1
0.2920390000  0.6322310000  0.7130280000  1  1  1
0.2734840000  0.6204940000  0.7276640000  1  1  1
0.3236330000  0.6472290000  0.7378870000  1  1  1
0.2992770000  0.6361810000  0.7523940000  1  1  1
0.2449700000  0.5968730000  0.7557280000  1  1  1
0.3477490000  0.6551440000  0.7578920000  1  1  1
0.3726170000  0.6605060000  0.7708780000  1  1  1
0.3468140000  0.6548890000  0.7848930000  1  1  1
0.2790310000  0.6242630000  0.7908360000  1  1  1
0.2805980000  0.6252850000  0.8058570000  1  1  1
0.3453150000  0.6544710000  0.8125240000  1  1  1
0.3443470000  0.6541950000  0.8268860000  1  1  1
0.2814220000  0.6258160000  0.8331260000  1  1  1
0.2782360000  0.6237370000  0.8466420000  1  1  1
0.3473310000  0.6550300000  0.8542040000  1  1  1
0.3435650000  0.6539700000  0.8674080000  1  1  1
0.2719410000  0.6194040000  0.8733370000  1  1  1
0.2687210000  0.6170670000  0.8868580000  1  1  1
0.3341630000  0.6510310000  0.8942100000  1  1  1
0.3335630000  0.6508290000  0.9072800000  1  1  1
0.2695060000  0.6176440000  0.9141980000  1  1  1
0.2705440000  0.6184010000  0.9285110000  1  1  1
0.3395030000  0.6527520000  0.9348560000  1  1  1
0.3530990000  0.6565290000  0.9489690000  1  1  1
0.2486490000  0.6003840000  0.9602900000  1  1  1
0.3050480000  0.6391010000  0.9600410000  1  1  1
0.3545900000  0.6568920000  0.9708840000  1  1  1
0.3427750000  0.6537390000  0.9851860000  1  1  1
0.2771530000  0.6230130000  0.9916870000  1  1  1
0.1951800000  0.5232350000  0.0082220000  1  1  1
0.2316740000  0.5827220000  0.0125200000  1  1  1
0.2317660000  0.5828280000  0.0258120000  1  1  1
0.1972010000  0.5280210000  0.0298330000  1  1  1
0.1898190000  0.5085630000  0.0432840000  1  1  1
0.2213260000  0.5697460000  0.0526380000  1  1  1
0.2271640000  0.5773110000  0.0679890000  1  1  1
0.1818580000  0.4744820000  0.0793810000  1  1  1
0.2011390000  0.5365250000  0.0788240000  1  1  1
0.2301920000  0.5809810000  0.0896510000  1  1  1
0.2238110000  0.5730490000  0.1038530000  1  1  1
0.1906090000  0.5109530000  0.1108430000  1  1  1
0.1915980000  0.5138180000  0.1254870000  1  1  1
0.2271330000  0.5772720000  0.1315280000  1  1  1
0.2286330000  0.5791120000  0.1455000000  1  1  1
0.1915760000  0.5137550000  0.1528530000  1  1  1
0.1913490000  0.5131080000  0.1664990000  1  1  1
0.2239640000  0.5732490000  0.1729100000  1  1  1
0.2250260000  0.5746190000  0.1862900000  1  1  1
0.1912750000  0.5128970000  0.1932370000  1  1  1
0.1916710000  0.5140220000  0.2064070000  1  1  1
0.2259180000  0.5757520000  0.2129870000  1  1  1
0.2255260000  0.5752560000  0.2263490000  1  1  1
0.1912130000  0.5127180000  0.2332350000  1  1  1
0.1913930000  0.5132340000  0.2466430000  1  1  1
0.2253210000  0.5749950000  0.2530970000  1  1  1
0.2288900000  0.5794230000  0.2667930000  1  1  1
0.1942700000  0.5209680000  0.2737760000  1  1  1
0.1928830000  0.5173550000  0.2869710000  1  1  1
0.2281550000  0.5785300000  0.2962090000  1  1  1
0.2216120000  0.5701330000  0.3080200000  1  1  1
0.1898430000  0.5086360000  0.3138290000  1  1  1
0.1896550000  0.5080540000  0.3271900000  1  1  1
0.2235680000  0.5727310000  0.3342660000  1  1  1
0.2239820000  0.5732710000  0.3486660000  1  1  1
0.1909940000  0.5120830000  0.3548140000  1  1  1
0.1871200000  0.4995450000  0.3690430000  1  1  1
0.2056170000  0.5451590000  0.3803060000  1  1  1
0.2470320000  0.5988600000  0.3807760000  1  1  1
0.1863820000  0.4967860000  0.3910530000  1  1  1
0.1889270000  0.5057390000  0.4054810000  1  1  1
0.2153410000  0.5612150000  0.4117790000  1  1  1
0.2152070000  0.5610130000  0.4258880000  1  1  1
0.1889870000  0.5059350000  0.4326550000  1  1  1
0.1900030000  0.5091280000  0.4464160000  1  1  1
0.2218860000  0.5705020000  0.4523790000  1  1  1
0.2239640000  0.5732490000  0.4661300000  1  1  1
0.1909150000  0.5118530000  0.4732070000  1  1  1
0.1909910000  0.5120750000  0.4865080000  1  1  1
0.2243930000  0.5738040000  0.4930120000  1  1  1
0.2248820000  0.5744330000  0.5060870000  1  1  1
0.1922190000  0.5155510000  0.5127220000  1  1  1
0.1936120000  0.5192780000  0.5249940000  1  1  1
0.2276470000  0.5779070000  0.5314760000  1  1  1
0.2211360000  0.5694880000  0.5433940000  1  1  1
0.1859300000  0.4950160000  0.5450980000  1  1  1
0.1857310000  0.4942180000  0.5676190000  1  1  1
0.2190780000  0.5666420000  0.5727340000  1  1  1
0.2223610000  0.5711380000  0.5857150000  1  1  1
0.1914740000  0.5134640000  0.5934470000  1  1  1
0.1990870000  0.5322170000  0.6037070000  1  1  1
0.2303200000  0.5811330000  0.6090100000  1  1  1
0.1986530000  0.5312730000  0.6154430000  1  1  1
0.2097040000  0.5522940000  0.6359730000  1  1  1
0.1967830000  0.5270600000  0.6486480000  1  1  1
0.2287380000  0.5792390000  0.6588580000  1  1  1
0.2203830000  0.5684580000  0.6711580000  1  1  1
0.1899930000  0.5090960000  0.6760010000  1  1  1
0.1862640000  0.4963290000  0.6894400000  1  1  1
0.2048370000  0.5437220000  0.7010000000  1  1  1
0.2490870000  0.6007920000  0.7013340000  1  1  1
0.1868820000  0.4986690000  0.7112280000  1  1  1
0.1897570000  0.5083680000  0.7253930000  1  1  1
0.2194030000  0.5670970000  0.7323840000  1  1  1
0.2123960000  0.5566740000  0.7471140000  1  1  1
0.1864400000  0.4970090000  0.7524350000  1  1  1
0.1873150000  0.5002460000  0.7661660000  1  1  1
0.2146920000  0.5602340000  0.7696860000  1  1  1
0.2251990000  0.5748400000  0.7846980000  1  1  1
0.1912790000  0.5129080000  0.7937280000  1  1  1
0.1964910000  0.5263780000  0.8080860000  1  1  1
0.2329190000  0.5841550000  0.8126090000  1  1  1
0.2325420000  0.5837230000  0.8260860000  1  1  1
0.1968710000  0.5272620000  0.8302690000  1  1  1
0.1912290000  0.5127640000  0.8438960000  1  1  1
0.2244640000  0.5738970000  0.8524330000  1  1  1
0.2209410000  0.5692220000  0.8655840000  1  1  1
0.1871410000  0.4996210000  0.8717650000  1  1  1
0.1863850000  0.4967960000  0.8860570000  1  1  1
0.2173320000  0.5641500000  0.8934310000  1  1  1
0.2176570000  0.5646190000  0.9073250000  1  1  1
0.1871710000  0.4997300000  0.9144470000  1  1  1
0.1882050000  0.5033480000  0.9284760000  1  1  1
0.2207420000  0.5689510000  0.9352840000  1  1  1
0.2156190000  0.5616300000  0.9498730000  1  1  1
0.1877670000  0.5018460000  0.9547650000  1  1  1
0.1880180000  0.5027110000  0.9676130000  1  1  1
0.2154450000  0.5613700000  0.9717940000  1  1  1
0.2234870000  0.5726260000  0.9857620000  1  1  1
0.1899690000  0.5090220000  0.9945980000  1  1  1
0.2167390000  0.3256030000  0.0064260000  1  1  1
0.1816240000  0.4160490000  0.0219390000  1  1  1
0.1827310000  0.4799410000  0.0194820000  1  1  1
0.1869140000  0.3901000000  0.0334650000  1  1  1
0.1857110000  0.3947500000  0.0559410000  1  1  1
0.1801020000  0.4310510000  0.0452340000  1  1  1
0.1817910000  0.4148660000  0.0698160000  1  1  1
0.1967690000  0.3618630000  0.0752160000  1  1  1
0.1952660000  0.3654430000  0.0872030000  1  1  1
0.1802710000  0.4286600000  0.0910520000  1  1  1
0.1796720000  0.4432240000  0.1050490000  1  1  1
0.1911160000  0.3764500000  0.1128130000  1  1  1
0.1906020000  0.3779580000  0.1263930000  1  1  1
0.1796700000  0.4453190000  0.1328180000  1  1  1
0.1796740000  0.4459930000  0.1463450000  1  1  1
0.1909470000  0.3769420000  0.1532240000  1  1  1
0.1908990000  0.3770820000  0.1666010000  1  1  1
0.1796680000  0.4445550000  0.1732670000  1  1  1
0.1796680000  0.4444080000  0.1866100000  1  1  1
0.1910280000  0.3767070000  0.1933330000  1  1  1
0.1910280000  0.3767070000  0.2066670000  1  1  1
0.1796680000  0.4444440000  0.2133330000  1  1  1
0.1796680000  0.4444090000  0.2266000000  1  1  1
0.1909720000  0.3768710000  0.2332850000  1  1  1
0.1908270000  0.3772940000  0.2462720000  1  1  1
0.1797040000  0.4482820000  0.2531150000  1  1  1
0.1797110000  0.4486720000  0.2662750000  1  1  1
0.1887320000  0.3837850000  0.2718490000  1  1  1
0.1921480000  0.3735340000  0.2837230000  1  1  1
0.1797190000  0.4398660000  0.2928470000  1  1  1
0.1798610000  0.4355080000  0.3061420000  1  1  1
0.1942420000  0.3679940000  0.3130660000  1  1  1
0.1925370000  0.3724670000  0.3268300000  1  1  1
0.1796720000  0.4431530000  0.3335370000  1  1  1
0.1796730000  0.4430550000  0.3470650000  1  1  1
0.1917730000  0.3745790000  0.3535680000  1  1  1
0.1921430000  0.3735480000  0.3666750000  1  1  1
0.1799560000  0.4335390000  0.3733920000  1  1  1
0.1800270000  0.4322670000  0.3863670000  1  1  1
0.1927360000  0.3719290000  0.3930110000  1  1  1
0.1918850000  0.3742650000  0.4065100000  1  1  1
0.1797280000  0.4394560000  0.4126280000  1  1  1
0.1797070000  0.4404120000  0.4265310000  1  1  1
0.1913540000  0.3757650000  0.4332250000  1  1  1
0.1911140000  0.3764580000  0.4466750000  1  1  1
0.1796690000  0.4440520000  0.4532560000  1  1  1
0.1796680000  0.4444440000  0.4666670000  1  1  1
0.1910240000  0.3767170000  0.4733390000  1  1  1
0.1910280000  0.3767070000  0.4866670000  1  1  1
0.1796690000  0.4448230000  0.4932660000  1  1  1
0.1796770000  0.4463510000  0.5064070000  1  1  1
0.1898710000  0.3801650000  0.5133580000  1  1  1
0.1883560000  0.3850310000  0.5271090000  1  1  1
0.1805860000  0.4639160000  0.5324900000  1  1  1
0.1804460000  0.4623730000  0.5548450000  1  1  1
0.1894190000  0.3815760000  0.5566210000  1  1  1
0.1928870000  0.3715250000  0.5688050000  1  1  1
0.1797730000  0.4378510000  0.5753440000  1  1  1
0.1796680000  0.4444900000  0.5884990000  1  1  1
0.1895010000  0.3813180000  0.5950660000  1  1  1
0.1932660000  0.3705180000  0.6091750000  1  1  1
0.1809650000  0.4213020000  0.6224720000  1  1  1
0.1888060000  0.5053460000  0.6236330000  1  1  1
0.1948560000  0.3664530000  0.6317320000  1  1  1
0.1929190000  0.3714390000  0.6452190000  1  1  1
0.1797000000  0.4480630000  0.6533050000  1  1  1
0.1797000000  0.4408440000  0.6673680000  1  1  1
0.1923920000  0.3728630000  0.6732020000  1  1  1
0.1933990000  0.3701690000  0.6868340000  1  1  1
0.1800600000  0.4317140000  0.6936790000  1  1  1
0.1800480000  0.4319160000  0.7066180000  1  1  1
0.1926350000  0.3722030000  0.7135050000  1  1  1
0.1909740000  0.3768640000  0.7265950000  1  1  1
0.1796880000  0.4415830000  0.7324440000  1  1  1
0.1796900000  0.4414510000  0.7467190000  1  1  1
0.1909300000  0.3769930000  0.7530870000  1  1  1
0.1919190000  0.3741700000  0.7672110000  1  1  1
0.1797780000  0.4376950000  0.7735820000  1  1  1
0.1797110000  0.4402360000  0.7878110000  1  1  1
0.1942400000  0.3679980000  0.7944630000  1  1  1
0.1992970000  0.3562200000  0.8080010000  1  1  1
0.1833520000  0.4055450000  0.8188430000  1  1  1
0.1824710000  0.4784050000  0.8189230000  1  1  1
0.1959790000  0.3637230000  0.8284990000  1  1  1
0.1929600000  0.3713290000  0.8409260000  1  1  1
0.1797540000  0.4384940000  0.8490430000  1  1  1
0.1804530000  0.4264390000  0.8623690000  1  1  1
0.2048720000  0.3451020000  0.8662080000  1  1  1
0.2027390000  0.3491680000  0.8883770000  1  1  1
0.1805320000  0.4255530000  0.8934980000  1  1  1
0.1803490000  0.4276720000  0.9074680000  1  1  1
0.2005890000  0.3534960000  0.9136470000  1  1  1
0.2130690000  0.3311560000  0.9263160000  1  1  1