ATOMIC_SPECIES
Si 3 si.gga.psp blps

LATTICE_CONSTANT
5.719001212590407  // add lattice constant

LATTICE_VECTORS
-0.500000000000    0.500000000000    0.500000000000    
0.500000000000    -0.500000000000    0.500000000000    
0.500000000000    0.500000000000    -0.500000000000    

ATOMIC_POSITIONS
Direct

Si
0.0
1
    0.000000000000    0.000000000000    0.000000000000 1 1 1
