ATOMIC_SPECIES
Ga 69.723 ga.gga.psp blps
Sb 121.76 sb.gga.psp blps

LATTICE_CONSTANT
1.9136868943690406  // add lattice constant

LATTICE_VECTORS
2.160259511834    -3.741679232031    0.000000000000    
2.160259511834    3.741679232031    0.000000000000    
0.000000000000    0.000000000000    7.132965470000    

ATOMIC_POSITIONS
Direct

Ga
0.0
2
    0.666666666667    0.333333333333    0.500683080000 1 1 1
    0.333333333333    0.666666666667    0.000683080000 1 1 1
Sb
0.0
2
    0.666666666667    0.333333333333    0.874216920000 1 1 1
    0.333333333333    0.666666666667    0.374216920000 1 1 1
