%BLOCK LATTICE_CART
  -0.001120071176984   2.207391246037403   2.207391241412152
   2.207391236731384  -0.001120085896176   2.207391246836657
   2.207391237092166   2.207391251822686  -0.001120081276998
%END BLOCK LATTICE_CART
%BLOCK POSITIONS_FRAC
    Mg   0.000000000000000   0.000000000000000   0.000000000000000
%END BLOCK POSITIONS_FRAC
%BLOCK SPECIES_POT
    Mg mg.lda.recpot                                                                          
%END BLOCK SPECIES_POT
