%BLOCK LATTICE_CART
-2.387796378864    2.387796378864    1.302638854364    
2.387796378864    -2.387796378864    1.302638854364    
2.387796378864    2.387796378864    -1.302638854364    
%END BLOCK LATTICE_CART
%BLOCK POSITIONS_FRAC
Si    0.000000000000    0.000000000000    0.000000000000
Si    0.750000000000    0.250000000000    0.500000000000
%END BLOCK POSITIONS_FRAC
%BLOCK SPECIES_POT
Si si.gga.recpot
%END BLOCK SPECIES_POT
