ATOMIC_SPECIES
Li 6.941 li.gga.psp.1 blps
Mg 24.305 mg.gga.psp blps

LATTICE_CONSTANT
1.8897259885789233  // add lattice constant

LATTICE_VECTORS
2.648241056324    -4.586888060242    0.000000000000    
2.648241056324    4.586888060242    0.000000000000    
0.000000000000    0.000000000000    5.062667860000    

ATOMIC_POSITIONS
Direct

Li
0.0
4
    0.666855160000    0.000000000000    0.000000000000 1 1 1
    0.333144840000    0.333144840000    0.000000000000 1 1 1
    0.000000000000    0.666855160000    0.000000000000 1 1 1
    0.000000000000    0.000000000000    0.500000000000 1 1 1
Mg
0.0
2
    0.666666666667    0.333333333333    0.500000000000 1 1 1
    0.333333333333    0.666666666667    0.500000000000 1 1 1
