%BLOCK LATTICE_CART
   2.806843720900000   0.000000000000000   0.000000000000000
   1.403421860450000   2.430797966752238   0.000000000000000
   0.000000000000003   0.000000000000002  50.584251476968888
%END BLOCK LATTICE_CART
%BLOCK POSITIONS_FRAC
    Al   0.000000000000000   0.000000000000000   0.000262577567633
    Al   0.333333333300000   0.333333333300000   0.045392761659089
    Al   0.666666666700000   0.666666666700000   0.090657222574527
    Al   0.000000000000000   0.000000000000000   0.135787679679708
    Al   0.333333333300000   0.333333333300000   0.181560299203136
    Al   0.000000000000000   0.000000000000000   0.227217125657645
    Al   0.666666666700000   0.666666666700000   0.272876737461778
    Al   0.000000000000000   0.000000000000000   0.318600280607528
    Al   0.333333333300000   0.333333333300000   0.363723175613377
    Al   0.666666666700000   0.666666666700000   0.408877798670293
    Al   0.000000000000000   0.000000000000000   0.454544609579442
    Al   0.666666666700000   0.666666666700000   0.500211517397599
    Al   0.333333333300000   0.333333333300000   0.545366361811253
    Al   0.000000000000000   0.000000000000000   0.590489634168268
    Al   0.666666666700000   0.666666666700000   0.636213597550333
    Al   1.000000000000000   1.000000000000000   0.681873648885817
    Al   0.333333333300000   0.333333333300000   0.727530945928713
    Al   0.000000000000000   0.000000000000000   0.773303974219558
    Al   0.666666666700000   0.666666666700000   0.818434738133337
    Al   0.333333333300000   0.333333333300000   0.863699469046784
    Al   0.000000000000000   0.000000000000000   0.908829786298322
    Al   0.666666666700000   0.666666666700000   0.954546203350861
%END BLOCK POSITIONS_FRAC
%BLOCK SPECIES_POT
    Al al.lda.recpot                                                                          
%END BLOCK SPECIES_POT
%BLOCK ION_OPTIMIZATION
           0           0           1
           0           0           1
           0           0           1
           0           0           1
           0           0           1
           0           0           1
           0           0           1
           0           0           1
           0           0           1
           0           0           1
           0           0           1
           0           0           1
           0           0           1
           0           0           1
           0           0           1
           0           0           1
           0           0           1
           0           0           1
           0           0           1
           0           0           1
           0           0           1
           0           0           1
%END BLOCK ION_OPTIMIZATION
