%BLOCK LATTICE_CART
2.762429455223    0.000000000000    0.000000000000    
-1.381214727612    2.392334084386    0.000000000000    
0.000000000000    0.000000000000    4.399741527605    
%END BLOCK LATTICE_CART
%BLOCK POSITIONS_FRAC
Si    0.000000000000    0.000000000000    0.000000000000
Si    0.666666666667    0.333333333333    0.500000000000
%END BLOCK POSITIONS_FRAC
%BLOCK SPECIES_POT
Si si.gga.recpot
%END BLOCK SPECIES_POT
