ATOMIC_SPECIES
Li 6.941 li.gga.psp.1 blps
Mg 24.305 mg.gga.psp blps

LATTICE_CONSTANT
1.8897259885789233  // add lattice constant

LATTICE_VECTORS
3.453834930000    0.000000000000    0.000000000000    
0.000000000000    3.464917300632    0.000000000000    
0.000000000000    0.000000000000    10.300706451781    

ATOMIC_POSITIONS
Direct

Li
0.0
2
    0.000000000000    0.500000000000    0.500000000000 1 1 1
    0.500000000000    0.000000000000    0.000000000000 1 1 1
Mg
0.0
4
    0.500000000000    0.000000000000    0.341317590000 1 1 1
    0.500000000000    0.000000000000    0.658682410000 1 1 1
    0.000000000000    0.500000000000    0.841317590000 1 1 1
    0.000000000000    0.500000000000    0.158682410000 1 1 1
