ATOMIC_SPECIES
Al 26.981539 al.lda.lps

LATTICE_CONSTANT
7.50241114482312  // add lattice constant

LATTICE_VECTORS
0.707106781187    0.000000000000    0.000000000000    
0.353553390593    0.612372435696    0.000000000000    
0.000000000000    0.000000000000    11.547005383792515

ATOMIC_POSITIONS
Direct

Al
0.0
20
    1.8970190764E-30  1.8970190764E-30  7.6907438970E-05 1 1 1
    3.3333333330E-01  3.3333333330E-01  4.9745823383E-02 1 1 1
    6.6666666670E-01  6.6666666670E-01  9.9738282589E-02 1 1 1
    1.8326888951E-30  1.8326888951E-30  1.4956006827E-01 1 1 1
    3.3333333330E-01  3.3333333330E-01  1.9944552217E-01 1 1 1
    8.0000000000E-01  8.0000000000E-01  2.5064006550E-01 1 1 1
    1.3333333330E-01  1.3333333330E-01  3.0042214318E-01 1 1 1
    4.6666666670E-01  4.6666666670E-01  3.5036005108E-01 1 1 1
    8.0000000000E-01  8.0000000000E-01  4.0000532712E-01 1 1 1
    1.3333333330E-01  1.3333333330E-01  4.5000000000E-01 1 1 1
    8.0000000000E-01  8.0000000000E-01  4.9999467288E-01 1 1 1
    4.6666666670E-01  4.6666666670E-01  5.4963994892E-01 1 1 1
    1.3333333330E-01  1.3333333330E-01  5.9957785682E-01 1 1 1
    8.0000000000E-01  8.0000000000E-01  6.4935993450E-01 1 1 1
    3.3333333330E-01  3.3333333330E-01  7.0055447783E-01 1 1 1
    1.8326888951E-30  1.8326888951E-30  7.5043993173E-01 1 1 1
    6.6666666670E-01  6.6666666670E-01  8.0026171741E-01 1 1 1
    3.3333333330E-01  3.3333333330E-01  8.5025417662E-01 1 1 1
    1.8970190764E-30  1.8970190764E-30  8.9992309256E-01 1 1 1
    6.6666666670E-01  6.6666666670E-01  9.5000000000E-01 1 1 1
