ATOMIC_SPECIES
Al 26.981539 al.lda.lps

LATTICE_CONSTANT
7.50241114482312  // add lattice constant

LATTICE_VECTORS
0.707106781187    0.000000000000    0.000000000000    
0.353553390593    0.612372435696    0.000000000000    
0.000000000000    0.000000000000    12.701705922171765

ATOMIC_POSITIONS
Direct

Al
0.0
22
-2.1780612456E-33 -6.8880294951E-32  1.6836210401E-04 1 1 1
 3.3333333333E-01  3.3333333333E-01  4.5377809740E-02 1 1 1
 6.6666666667E-01  6.6666666667E-01  9.0945318886E-02 1 1 1
-2.1780612456E-33 -6.8880294951E-32  1.3621050720E-01 1 1 1
 3.3333333333E-01  3.3333333333E-01  1.8183680370E-01 1 1 1
-2.1780612456E-33 -6.8880294951E-32  2.2728817942E-01 1 1 1
 6.6666666667E-01  6.6666666667E-01  2.7275353595E-01 1 1 1
 1.0000000000E+00  1.0000000000E+00  3.1832807664E-01 1 1 1
 3.3333333333E-01  3.3333333333E-01  3.6362793015E-01 1 1 1
 6.6666666667E-01  6.6666666667E-01  4.0892119282E-01 1 1 1
 1.0000000000E+00  1.0000000000E+00  4.5454545455E-01 1 1 1
 6.6666666667E-01  6.6666666667E-01  5.0016971628E-01 1 1 1
 3.3333333333E-01  3.3333333333E-01  5.4546297895E-01 1 1 1
 1.0000000000E+00  1.0000000000E+00  5.9076283246E-01 1 1 1
 6.6666666667E-01  6.6666666667E-01  6.3633737315E-01 1 1 1
-2.1780612456E-33 -6.8880294951E-32  6.8180272968E-01 1 1 1
 3.3333333333E-01  3.3333333333E-01  7.2725410540E-01 1 1 1
-2.1780612456E-33 -6.8880294951E-32  7.7288040190E-01 1 1 1
 6.6666666667E-01  6.6666666667E-01  8.1814559021E-01 1 1 1
 3.3333333333E-01  3.3333333333E-01  8.6371309936E-01 1 1 1
-2.1780612456E-33 -6.8880294951E-32  9.0892254700E-01 1 1 1
 6.6666666667E-01  6.6666666667E-01  9.5454545455E-01 1 1 1
 