%BLOCK LATTICE_CART
   0.001423385035995   2.108274736673974   2.108278331286433
   2.108275868338078   0.001428872672820   2.108273976680337
   2.108275243181993   2.108269756905429   0.001425233931877
%END BLOCK LATTICE_CART
%BLOCK POSITIONS_FRAC
    Li   0.000000000000000   0.000000000000000   0.000000000000000
%END BLOCK POSITIONS_FRAC
%BLOCK SPECIES_POT
    Li li.lda.recpot                                                                          
%END BLOCK SPECIES_POT
