%BLOCK LATTICE_CART
3.110556346034    0.000000000000    0.000000000000    
-1.555278173017    2.693820815569    0.000000000000    
0.000000000000    0.000000000000    5.096786023743    
%END BLOCK LATTICE_CART
%BLOCK POSITIONS_FRAC
Mg    0.000000000000    0.000000000000    0.000000000000
Mg    0.666666666667    0.333333333333    0.500000000000
%END BLOCK POSITIONS_FRAC
%BLOCK SPECIES_POT
Mg mg.lda.recpot
%END BLOCK SPECIES_POT
