%BLOCK LATTICE_CART
   2.807406101100000   0.000000000000000   0.000000000000000
   1.403703050550000   2.431285002292024   0.000000000000000
   0.000000000000003   0.000000000000002  46.013877003148970
%END BLOCK LATTICE_CART
%BLOCK POSITIONS_FRAC
    Al   0.000000000000000   0.000000000000000   0.000201073223917
    Al   0.333333333300000   0.333333333300000   0.049915932226820
    Al   0.666666666700000   0.666666666700000   0.099715070930541
    Al   0.000000000000000   0.000000000000000   0.149471395504524
    Al   0.333333333300000   0.333333333300000   0.199609478826165
    Al   0.000000000000000   0.000000000000000   0.250297720798685
    Al   0.333333333300000   0.333333333300000   0.300396171205063
    Al   0.666666666700000   0.666666666700000   0.350168164859154
    Al   0.000000000000000   0.000000000000000   0.399855037417486
    Al   0.333333333300000   0.333333333300000   0.449999024781921
    Al   0.000000000000000   0.000000000000000   0.500143159175482
    Al   0.666666666700000   0.666666666700000   0.549830331916363
    Al   0.333333333300000   0.333333333300000   0.599602707414888
    Al   0.000000000000000   0.000000000000000   0.649701600455880
    Al   0.333333333300000   0.333333333300000   0.700390468208555
    Al   1.000000000000000   1.000000000000000   0.750529164547270
    Al   0.666666666700000   0.666666666700000   0.800286062653881
    Al   0.333333333300000   0.333333333300000   0.850085633362869
    Al   0.000000000000000   0.000000000000000   0.899800687943378
    Al   0.666666666700000   0.666666666700000   0.950000914547254
%END BLOCK POSITIONS_FRAC
%BLOCK SPECIES_POT
    Al al.lda.recpot                                                                          
%END BLOCK SPECIES_POT
%BLOCK ION_OPTIMIZATION
           0           0           1
           0           0           1
           0           0           1
           0           0           1
           0           0           1
           0           0           1
           0           0           1
           0           0           1
           0           0           1
           0           0           1
           0           0           1
           0           0           1
           0           0           1
           0           0           1
           0           0           1
           0           0           1
           0           0           1
           0           0           1
           0           0           1
           0           0           1
%END BLOCK ION_OPTIMIZATION
