ATOMIC_SPECIES
Li 6.941 li.gga.psp.1 blps
Mg 24.305 mg.gga.psp blps

LATTICE_CONSTANT
1.8897259885789233  // add lattice constant

LATTICE_VECTORS
0.000000000000    10.878789657029    0.000000000000    
3.375393760000    0.000000000000    0.000000000000    
0.000000000000    -2.192954310004    -4.381279845690    

ATOMIC_POSITIONS
Direct

Li
0.0
4
    0.133299480000    0.500000000000    0.383541190000 1 1 1
    0.366700520000    0.000000000000    0.616458810000 1 1 1
    0.633299480000    0.000000000000    0.383541190000 1 1 1
    0.866700520000    0.500000000000    0.616458810000 1 1 1
Mg
0.0
4
    0.384604380000    0.500000000000    0.135454530000 1 1 1
    0.115395620000    0.000000000000    0.864545470000 1 1 1
    0.884604380000    0.000000000000    0.135454530000 1 1 1
    0.615395620000    0.500000000000    0.864545470000 1 1 1
