ATOMIC_SPECIES
Al 27 al.lda.lps

LATTICE_CONSTANT
7.50241114482

LATTICE_VECTORS
0.707106781187 0 0 #latvec1
0.353553390593 0.612372435696 0 #latvec2
0 0 12.7017059222 #latvec3

ATOMIC_POSITIONS
Direct

Al #label
0 #magnetism
22 #number of atoms
0 0 0.000758259659686 0 0 1 0 0 0
0.333333333332 0.333333333332 0.0447523953748 0 0 1 0 0 0
0.666666666668 0.666666666668 0.0915698578529 0 0 1 0 0 0
0 0 0.135682638884 0 0 1 0 0 0
0.333333333332 0.333333333332 0.181767270645 0 0 1 0 0 0
0 0 0.224916751265 0 0 1 0 0 0
0.466666666667 0.466666666667 0.275273523213 0 0 1 0 0 0
0.799999999999 0.799999999999 0.318172923122 0 0 1 0 0 0
0.133333333333 0.133333333333 0.363776870823 0 0 1 0 0 0
0.466666666667 0.466666666667 0.408720441719 0 0 1 0 0 0
0.799999999999 0.799999999999 0.454522280525 0 0 1 0 0 0
0.466666666667 0.466666666667 0.500481357551 0 0 1 0 0 0
0.133333333333 0.133333333333 0.545257427732 0 0 1 0 0 0
0.799999999999 0.799999999999 0.590940155596 0 0 1 0 0 0
0.466666666667 0.466666666667 0.633870833202 0 0 1 0 0 0
0 0 0.684045853802 0 0 1 0 0 0
0.333333333332 0.333333333332 0.727336951031 0 0 1 0 0 0
0 0 0.773264013451 0 0 1 0 0 0
0.666666666668 0.666666666668 0.817506583531 0 0 1 0 0 0
0.333333333332 0.333333333332 0.864408011323 0 0 1 0 0 0
0 0 0.908337482262 0 0 1 0 0 0
0.666666666668 0.666666666668 0.954638117437 0 0 1 0 0 0
