ATOMIC_SPECIES
Si 14 si.lda.lps blps

LATTICE_CONSTANT
10.220303457786414  // add lattice constant

LATTICE_VECTORS
4.000000000000    0.000000000000    0.000000000000    
0.000000000000    4.000000000000    0.000000000000    
0.000000000000    0.000000000000    4.000000000000    

ATOMIC_POSITIONS
Direct

Si
0.0
511
0.062500000000	0.062500000000	0.062500000000 1 1 1
0.125000000000	0.125000000000	0.000000000000 1 1 1
0.187500000000	0.187500000000	0.062500000000 1 1 1
0.125000000000	0.000000000000	0.125000000000 1 1 1
0.187500000000	0.062500000000	0.187500000000 1 1 1
0.000000000000	0.125000000000	0.125000000000 1 1 1
0.062500000000	0.187500000000	0.187500000000 1 1 1
0.000000000000	0.000000000000	0.250000000000 1 1 1
0.062500000000	0.062500000000	0.312500000000 1 1 1
0.125000000000	0.125000000000	0.250000000000 1 1 1
0.187500000000	0.187500000000	0.312500000000 1 1 1
0.125000000000	0.000000000000	0.375000000000 1 1 1
0.187500000000	0.062500000000	0.437500000000 1 1 1
0.000000000000	0.125000000000	0.375000000000 1 1 1
0.062500000000	0.187500000000	0.437500000000 1 1 1
0.000000000000	0.000000000000	0.500000000000 1 1 1
0.062500000000	0.062500000000	0.562500000000 1 1 1
0.125000000000	0.125000000000	0.500000000000 1 1 1
0.187500000000	0.187500000000	0.562500000000 1 1 1
0.125000000000	0.000000000000	0.625000000000 1 1 1
0.187500000000	0.062500000000	0.687500000000 1 1 1
0.000000000000	0.125000000000	0.625000000000 1 1 1
0.062500000000	0.187500000000	0.687500000000 1 1 1
0.000000000000	0.000000000000	0.750000000000 1 1 1
0.062500000000	0.062500000000	0.812500000000 1 1 1
0.125000000000	0.125000000000	0.750000000000 1 1 1
0.187500000000	0.187500000000	0.812500000000 1 1 1
0.125000000000	0.000000000000	0.875000000000 1 1 1
0.187500000000	0.062500000000	0.937500000000 1 1 1
0.000000000000	0.125000000000	0.875000000000 1 1 1
0.062500000000	0.187500000000	0.937500000000 1 1 1
0.000000000000	0.250000000000	0.000000000000 1 1 1
0.062500000000	0.312500000000	0.062500000000 1 1 1
0.125000000000	0.375000000000	0.000000000000 1 1 1
0.187500000000	0.437500000000	0.062500000000 1 1 1
0.125000000000	0.250000000000	0.125000000000 1 1 1
0.187500000000	0.312500000000	0.187500000000 1 1 1
0.000000000000	0.375000000000	0.125000000000 1 1 1
0.062500000000	0.437500000000	0.187500000000 1 1 1
0.000000000000	0.250000000000	0.250000000000 1 1 1
0.062500000000	0.312500000000	0.312500000000 1 1 1
0.125000000000	0.375000000000	0.250000000000 1 1 1
0.187500000000	0.437500000000	0.312500000000 1 1 1
0.125000000000	0.250000000000	0.375000000000 1 1 1
0.187500000000	0.312500000000	0.437500000000 1 1 1
0.000000000000	0.375000000000	0.375000000000 1 1 1
0.062500000000	0.437500000000	0.437500000000 1 1 1
0.000000000000	0.250000000000	0.500000000000 1 1 1
0.062500000000	0.312500000000	0.562500000000 1 1 1
0.125000000000	0.375000000000	0.500000000000 1 1 1
0.187500000000	0.437500000000	0.562500000000 1 1 1
0.125000000000	0.250000000000	0.625000000000 1 1 1
0.187500000000	0.312500000000	0.687500000000 1 1 1
0.000000000000	0.375000000000	0.625000000000 1 1 1
0.062500000000	0.437500000000	0.687500000000 1 1 1
0.000000000000	0.250000000000	0.750000000000 1 1 1
0.062500000000	0.312500000000	0.812500000000 1 1 1
0.125000000000	0.375000000000	0.750000000000 1 1 1
0.187500000000	0.437500000000	0.812500000000 1 1 1
0.125000000000	0.250000000000	0.875000000000 1 1 1
0.187500000000	0.312500000000	0.937500000000 1 1 1
0.000000000000	0.375000000000	0.875000000000 1 1 1
0.062500000000	0.437500000000	0.937500000000 1 1 1
0.000000000000	0.500000000000	0.000000000000 1 1 1
0.062500000000	0.562500000000	0.062500000000 1 1 1
0.125000000000	0.625000000000	0.000000000000 1 1 1
0.187500000000	0.687500000000	0.062500000000 1 1 1
0.125000000000	0.500000000000	0.125000000000 1 1 1
0.187500000000	0.562500000000	0.187500000000 1 1 1
0.000000000000	0.625000000000	0.125000000000 1 1 1
0.062500000000	0.687500000000	0.187500000000 1 1 1
0.000000000000	0.500000000000	0.250000000000 1 1 1
0.062500000000	0.562500000000	0.312500000000 1 1 1
0.125000000000	0.625000000000	0.250000000000 1 1 1
0.187500000000	0.687500000000	0.312500000000 1 1 1
0.125000000000	0.500000000000	0.375000000000 1 1 1
0.187500000000	0.562500000000	0.437500000000 1 1 1
0.000000000000	0.625000000000	0.375000000000 1 1 1
0.062500000000	0.687500000000	0.437500000000 1 1 1
0.000000000000	0.500000000000	0.500000000000 1 1 1
0.062500000000	0.562500000000	0.562500000000 1 1 1
0.125000000000	0.625000000000	0.500000000000 1 1 1
0.187500000000	0.687500000000	0.562500000000 1 1 1
0.125000000000	0.500000000000	0.625000000000 1 1 1
0.187500000000	0.562500000000	0.687500000000 1 1 1
0.000000000000	0.625000000000	0.625000000000 1 1 1
0.062500000000	0.687500000000	0.687500000000 1 1 1
0.000000000000	0.500000000000	0.750000000000 1 1 1
0.062500000000	0.562500000000	0.812500000000 1 1 1
0.125000000000	0.625000000000	0.750000000000 1 1 1
0.187500000000	0.687500000000	0.812500000000 1 1 1
0.125000000000	0.500000000000	0.875000000000 1 1 1
0.187500000000	0.562500000000	0.937500000000 1 1 1
0.000000000000	0.625000000000	0.875000000000 1 1 1
0.062500000000	0.687500000000	0.937500000000 1 1 1
0.000000000000	0.750000000000	0.000000000000 1 1 1
0.062500000000	0.812500000000	0.062500000000 1 1 1
0.125000000000	0.875000000000	0.000000000000 1 1 1
0.187500000000	0.937500000000	0.062500000000 1 1 1
0.125000000000	0.750000000000	0.125000000000 1 1 1
0.187500000000	0.812500000000	0.187500000000 1 1 1
0.000000000000	0.875000000000	0.125000000000 1 1 1
0.062500000000	0.937500000000	0.187500000000 1 1 1
0.000000000000	0.750000000000	0.250000000000 1 1 1
0.062500000000	0.812500000000	0.312500000000 1 1 1
0.125000000000	0.875000000000	0.250000000000 1 1 1
0.187500000000	0.937500000000	0.312500000000 1 1 1
0.125000000000	0.750000000000	0.375000000000 1 1 1
0.187500000000	0.812500000000	0.437500000000 1 1 1
0.000000000000	0.875000000000	0.375000000000 1 1 1
0.062500000000	0.937500000000	0.437500000000 1 1 1
0.000000000000	0.750000000000	0.500000000000 1 1 1
0.062500000000	0.812500000000	0.562500000000 1 1 1
0.125000000000	0.875000000000	0.500000000000 1 1 1
0.187500000000	0.937500000000	0.562500000000 1 1 1
0.125000000000	0.750000000000	0.625000000000 1 1 1
0.187500000000	0.812500000000	0.687500000000 1 1 1
0.000000000000	0.875000000000	0.625000000000 1 1 1
0.062500000000	0.937500000000	0.687500000000 1 1 1
0.000000000000	0.750000000000	0.750000000000 1 1 1
0.062500000000	0.812500000000	0.812500000000 1 1 1
0.125000000000	0.875000000000	0.750000000000 1 1 1
0.187500000000	0.937500000000	0.812500000000 1 1 1
0.125000000000	0.750000000000	0.875000000000 1 1 1
0.187500000000	0.812500000000	0.937500000000 1 1 1
0.000000000000	0.875000000000	0.875000000000 1 1 1
0.062500000000	0.937500000000	0.937500000000 1 1 1
0.250000000000	0.000000000000	0.000000000000 1 1 1
0.312500000000	0.062500000000	0.062500000000 1 1 1
0.375000000000	0.125000000000	0.000000000000 1 1 1
0.437500000000	0.187500000000	0.062500000000 1 1 1
0.375000000000	0.000000000000	0.125000000000 1 1 1
0.437500000000	0.062500000000	0.187500000000 1 1 1
0.250000000000	0.125000000000	0.125000000000 1 1 1
0.312500000000	0.187500000000	0.187500000000 1 1 1
0.250000000000	0.000000000000	0.250000000000 1 1 1
0.312500000000	0.062500000000	0.312500000000 1 1 1
0.375000000000	0.125000000000	0.250000000000 1 1 1
0.437500000000	0.187500000000	0.312500000000 1 1 1
0.375000000000	0.000000000000	0.375000000000 1 1 1
0.437500000000	0.062500000000	0.437500000000 1 1 1
0.250000000000	0.125000000000	0.375000000000 1 1 1
0.312500000000	0.187500000000	0.437500000000 1 1 1
0.250000000000	0.000000000000	0.500000000000 1 1 1
0.312500000000	0.062500000000	0.562500000000 1 1 1
0.375000000000	0.125000000000	0.500000000000 1 1 1
0.437500000000	0.187500000000	0.562500000000 1 1 1
0.375000000000	0.000000000000	0.625000000000 1 1 1
0.437500000000	0.062500000000	0.687500000000 1 1 1
0.250000000000	0.125000000000	0.625000000000 1 1 1
0.312500000000	0.187500000000	0.687500000000 1 1 1
0.250000000000	0.000000000000	0.750000000000 1 1 1
0.312500000000	0.062500000000	0.812500000000 1 1 1
0.375000000000	0.125000000000	0.750000000000 1 1 1
0.437500000000	0.187500000000	0.812500000000 1 1 1
0.375000000000	0.000000000000	0.875000000000 1 1 1
0.437500000000	0.062500000000	0.937500000000 1 1 1
0.250000000000	0.125000000000	0.875000000000 1 1 1
0.312500000000	0.187500000000	0.937500000000 1 1 1
0.250000000000	0.250000000000	0.000000000000 1 1 1
0.312500000000	0.312500000000	0.062500000000 1 1 1
0.375000000000	0.375000000000	0.000000000000 1 1 1
0.437500000000	0.437500000000	0.062500000000 1 1 1
0.375000000000	0.250000000000	0.125000000000 1 1 1
0.437500000000	0.312500000000	0.187500000000 1 1 1
0.250000000000	0.375000000000	0.125000000000 1 1 1
0.312500000000	0.437500000000	0.187500000000 1 1 1
0.250000000000	0.250000000000	0.250000000000 1 1 1
0.312500000000	0.312500000000	0.312500000000 1 1 1
0.375000000000	0.375000000000	0.250000000000 1 1 1
0.437500000000	0.437500000000	0.312500000000 1 1 1
0.375000000000	0.250000000000	0.375000000000 1 1 1
0.437500000000	0.312500000000	0.437500000000 1 1 1
0.250000000000	0.375000000000	0.375000000000 1 1 1
0.312500000000	0.437500000000	0.437500000000 1 1 1
0.250000000000	0.250000000000	0.500000000000 1 1 1
0.312500000000	0.312500000000	0.562500000000 1 1 1
0.375000000000	0.375000000000	0.500000000000 1 1 1
0.437500000000	0.437500000000	0.562500000000 1 1 1
0.375000000000	0.250000000000	0.625000000000 1 1 1
0.437500000000	0.312500000000	0.687500000000 1 1 1
0.250000000000	0.375000000000	0.625000000000 1 1 1
0.312500000000	0.437500000000	0.687500000000 1 1 1
0.250000000000	0.250000000000	0.750000000000 1 1 1
0.312500000000	0.312500000000	0.812500000000 1 1 1
0.375000000000	0.375000000000	0.750000000000 1 1 1
0.437500000000	0.437500000000	0.812500000000 1 1 1
0.375000000000	0.250000000000	0.875000000000 1 1 1
0.437500000000	0.312500000000	0.937500000000 1 1 1
0.250000000000	0.375000000000	0.875000000000 1 1 1
0.312500000000	0.437500000000	0.937500000000 1 1 1
0.250000000000	0.500000000000	0.000000000000 1 1 1
0.312500000000	0.562500000000	0.062500000000 1 1 1
0.375000000000	0.625000000000	0.000000000000 1 1 1
0.437500000000	0.687500000000	0.062500000000 1 1 1
0.375000000000	0.500000000000	0.125000000000 1 1 1
0.437500000000	0.562500000000	0.187500000000 1 1 1
0.250000000000	0.625000000000	0.125000000000 1 1 1
0.312500000000	0.687500000000	0.187500000000 1 1 1
0.250000000000	0.500000000000	0.250000000000 1 1 1
0.312500000000	0.562500000000	0.312500000000 1 1 1
0.375000000000	0.625000000000	0.250000000000 1 1 1
0.437500000000	0.687500000000	0.312500000000 1 1 1
0.375000000000	0.500000000000	0.375000000000 1 1 1
0.437500000000	0.562500000000	0.437500000000 1 1 1
0.250000000000	0.625000000000	0.375000000000 1 1 1
0.312500000000	0.687500000000	0.437500000000 1 1 1
0.250000000000	0.500000000000	0.500000000000 1 1 1
0.312500000000	0.562500000000	0.562500000000 1 1 1
0.375000000000	0.625000000000	0.500000000000 1 1 1
0.437500000000	0.687500000000	0.562500000000 1 1 1
0.375000000000	0.500000000000	0.625000000000 1 1 1
0.437500000000	0.562500000000	0.687500000000 1 1 1
0.250000000000	0.625000000000	0.625000000000 1 1 1
0.312500000000	0.687500000000	0.687500000000 1 1 1
0.250000000000	0.500000000000	0.750000000000 1 1 1
0.312500000000	0.562500000000	0.812500000000 1 1 1
0.375000000000	0.625000000000	0.750000000000 1 1 1
0.437500000000	0.687500000000	0.812500000000 1 1 1
0.375000000000	0.500000000000	0.875000000000 1 1 1
0.437500000000	0.562500000000	0.937500000000 1 1 1
0.250000000000	0.625000000000	0.875000000000 1 1 1
0.312500000000	0.687500000000	0.937500000000 1 1 1
0.250000000000	0.750000000000	0.000000000000 1 1 1
0.312500000000	0.812500000000	0.062500000000 1 1 1
0.375000000000	0.875000000000	0.000000000000 1 1 1
0.437500000000	0.937500000000	0.062500000000 1 1 1
0.375000000000	0.750000000000	0.125000000000 1 1 1
0.437500000000	0.812500000000	0.187500000000 1 1 1
0.250000000000	0.875000000000	0.125000000000 1 1 1
0.312500000000	0.937500000000	0.187500000000 1 1 1
0.250000000000	0.750000000000	0.250000000000 1 1 1
0.312500000000	0.812500000000	0.312500000000 1 1 1
0.375000000000	0.875000000000	0.250000000000 1 1 1
0.437500000000	0.937500000000	0.312500000000 1 1 1
0.375000000000	0.750000000000	0.375000000000 1 1 1
0.437500000000	0.812500000000	0.437500000000 1 1 1
0.250000000000	0.875000000000	0.375000000000 1 1 1
0.312500000000	0.937500000000	0.437500000000 1 1 1
0.250000000000	0.750000000000	0.500000000000 1 1 1
0.312500000000	0.812500000000	0.562500000000 1 1 1
0.375000000000	0.875000000000	0.500000000000 1 1 1
0.437500000000	0.937500000000	0.562500000000 1 1 1
0.375000000000	0.750000000000	0.625000000000 1 1 1
0.437500000000	0.812500000000	0.687500000000 1 1 1
0.250000000000	0.875000000000	0.625000000000 1 1 1
0.312500000000	0.937500000000	0.687500000000 1 1 1
0.250000000000	0.750000000000	0.750000000000 1 1 1
0.312500000000	0.812500000000	0.812500000000 1 1 1
0.375000000000	0.875000000000	0.750000000000 1 1 1
0.437500000000	0.937500000000	0.812500000000 1 1 1
0.375000000000	0.750000000000	0.875000000000 1 1 1
0.437500000000	0.812500000000	0.937500000000 1 1 1
0.250000000000	0.875000000000	0.875000000000 1 1 1
0.312500000000	0.937500000000	0.937500000000 1 1 1
0.500000000000	0.000000000000	0.000000000000 1 1 1
0.562500000000	0.062500000000	0.062500000000 1 1 1
0.625000000000	0.125000000000	0.000000000000 1 1 1
0.687500000000	0.187500000000	0.062500000000 1 1 1
0.625000000000	0.000000000000	0.125000000000 1 1 1
0.687500000000	0.062500000000	0.187500000000 1 1 1
0.500000000000	0.125000000000	0.125000000000 1 1 1
0.562500000000	0.187500000000	0.187500000000 1 1 1
0.500000000000	0.000000000000	0.250000000000 1 1 1
0.562500000000	0.062500000000	0.312500000000 1 1 1
0.625000000000	0.125000000000	0.250000000000 1 1 1
0.687500000000	0.187500000000	0.312500000000 1 1 1
0.625000000000	0.000000000000	0.375000000000 1 1 1
0.687500000000	0.062500000000	0.437500000000 1 1 1
0.500000000000	0.125000000000	0.375000000000 1 1 1
0.562500000000	0.187500000000	0.437500000000 1 1 1
0.500000000000	0.000000000000	0.500000000000 1 1 1
0.562500000000	0.062500000000	0.562500000000 1 1 1
0.625000000000	0.125000000000	0.500000000000 1 1 1
0.687500000000	0.187500000000	0.562500000000 1 1 1
0.625000000000	0.000000000000	0.625000000000 1 1 1
0.687500000000	0.062500000000	0.687500000000 1 1 1
0.500000000000	0.125000000000	0.625000000000 1 1 1
0.562500000000	0.187500000000	0.687500000000 1 1 1
0.500000000000	0.000000000000	0.750000000000 1 1 1
0.562500000000	0.062500000000	0.812500000000 1 1 1
0.625000000000	0.125000000000	0.750000000000 1 1 1
0.687500000000	0.187500000000	0.812500000000 1 1 1
0.625000000000	0.000000000000	0.875000000000 1 1 1
0.687500000000	0.062500000000	0.937500000000 1 1 1
0.500000000000	0.125000000000	0.875000000000 1 1 1
0.562500000000	0.187500000000	0.937500000000 1 1 1
0.500000000000	0.250000000000	0.000000000000 1 1 1
0.562500000000	0.312500000000	0.062500000000 1 1 1
0.625000000000	0.375000000000	0.000000000000 1 1 1
0.687500000000	0.437500000000	0.062500000000 1 1 1
0.625000000000	0.250000000000	0.125000000000 1 1 1
0.687500000000	0.312500000000	0.187500000000 1 1 1
0.500000000000	0.375000000000	0.125000000000 1 1 1
0.562500000000	0.437500000000	0.187500000000 1 1 1
0.500000000000	0.250000000000	0.250000000000 1 1 1
0.562500000000	0.312500000000	0.312500000000 1 1 1
0.625000000000	0.375000000000	0.250000000000 1 1 1
0.687500000000	0.437500000000	0.312500000000 1 1 1
0.625000000000	0.250000000000	0.375000000000 1 1 1
0.687500000000	0.312500000000	0.437500000000 1 1 1
0.500000000000	0.375000000000	0.375000000000 1 1 1
0.562500000000	0.437500000000	0.437500000000 1 1 1
0.500000000000	0.250000000000	0.500000000000 1 1 1
0.562500000000	0.312500000000	0.562500000000 1 1 1
0.625000000000	0.375000000000	0.500000000000 1 1 1
0.687500000000	0.437500000000	0.562500000000 1 1 1
0.625000000000	0.250000000000	0.625000000000 1 1 1
0.687500000000	0.312500000000	0.687500000000 1 1 1
0.500000000000	0.375000000000	0.625000000000 1 1 1
0.562500000000	0.437500000000	0.687500000000 1 1 1
0.500000000000	0.250000000000	0.750000000000 1 1 1
0.562500000000	0.312500000000	0.812500000000 1 1 1
0.625000000000	0.375000000000	0.750000000000 1 1 1
0.687500000000	0.437500000000	0.812500000000 1 1 1
0.625000000000	0.250000000000	0.875000000000 1 1 1
0.687500000000	0.312500000000	0.937500000000 1 1 1
0.500000000000	0.375000000000	0.875000000000 1 1 1
0.562500000000	0.437500000000	0.937500000000 1 1 1
0.500000000000	0.500000000000	0.000000000000 1 1 1
0.562500000000	0.562500000000	0.062500000000 1 1 1
0.625000000000	0.625000000000	0.000000000000 1 1 1
0.687500000000	0.687500000000	0.062500000000 1 1 1
0.625000000000	0.500000000000	0.125000000000 1 1 1
0.687500000000	0.562500000000	0.187500000000 1 1 1
0.500000000000	0.625000000000	0.125000000000 1 1 1
0.562500000000	0.687500000000	0.187500000000 1 1 1
0.500000000000	0.500000000000	0.250000000000 1 1 1
0.562500000000	0.562500000000	0.312500000000 1 1 1
0.625000000000	0.625000000000	0.250000000000 1 1 1
0.687500000000	0.687500000000	0.312500000000 1 1 1
0.625000000000	0.500000000000	0.375000000000 1 1 1
0.687500000000	0.562500000000	0.437500000000 1 1 1
0.500000000000	0.625000000000	0.375000000000 1 1 1
0.562500000000	0.687500000000	0.437500000000 1 1 1
0.500000000000	0.500000000000	0.500000000000 1 1 1
0.562500000000	0.562500000000	0.562500000000 1 1 1
0.625000000000	0.625000000000	0.500000000000 1 1 1
0.687500000000	0.687500000000	0.562500000000 1 1 1
0.625000000000	0.500000000000	0.625000000000 1 1 1
0.687500000000	0.562500000000	0.687500000000 1 1 1
0.500000000000	0.625000000000	0.625000000000 1 1 1
0.562500000000	0.687500000000	0.687500000000 1 1 1
0.500000000000	0.500000000000	0.750000000000 1 1 1
0.562500000000	0.562500000000	0.812500000000 1 1 1
0.625000000000	0.625000000000	0.750000000000 1 1 1
0.687500000000	0.687500000000	0.812500000000 1 1 1
0.625000000000	0.500000000000	0.875000000000 1 1 1
0.687500000000	0.562500000000	0.937500000000 1 1 1
0.500000000000	0.625000000000	0.875000000000 1 1 1
0.562500000000	0.687500000000	0.937500000000 1 1 1
0.500000000000	0.750000000000	0.000000000000 1 1 1
0.562500000000	0.812500000000	0.062500000000 1 1 1
0.625000000000	0.875000000000	0.000000000000 1 1 1
0.687500000000	0.937500000000	0.062500000000 1 1 1
0.625000000000	0.750000000000	0.125000000000 1 1 1
0.687500000000	0.812500000000	0.187500000000 1 1 1
0.500000000000	0.875000000000	0.125000000000 1 1 1
0.562500000000	0.937500000000	0.187500000000 1 1 1
0.500000000000	0.750000000000	0.250000000000 1 1 1
0.562500000000	0.812500000000	0.312500000000 1 1 1
0.625000000000	0.875000000000	0.250000000000 1 1 1
0.687500000000	0.937500000000	0.312500000000 1 1 1
0.625000000000	0.750000000000	0.375000000000 1 1 1
0.687500000000	0.812500000000	0.437500000000 1 1 1
0.500000000000	0.875000000000	0.375000000000 1 1 1
0.562500000000	0.937500000000	0.437500000000 1 1 1
0.500000000000	0.750000000000	0.500000000000 1 1 1
0.562500000000	0.812500000000	0.562500000000 1 1 1
0.625000000000	0.875000000000	0.500000000000 1 1 1
0.687500000000	0.937500000000	0.562500000000 1 1 1
0.625000000000	0.750000000000	0.625000000000 1 1 1
0.687500000000	0.812500000000	0.687500000000 1 1 1
0.500000000000	0.875000000000	0.625000000000 1 1 1
0.562500000000	0.937500000000	0.687500000000 1 1 1
0.500000000000	0.750000000000	0.750000000000 1 1 1
0.562500000000	0.812500000000	0.812500000000 1 1 1
0.625000000000	0.875000000000	0.750000000000 1 1 1
0.687500000000	0.937500000000	0.812500000000 1 1 1
0.625000000000	0.750000000000	0.875000000000 1 1 1
0.687500000000	0.812500000000	0.937500000000 1 1 1
0.500000000000	0.875000000000	0.875000000000 1 1 1
0.562500000000	0.937500000000	0.937500000000 1 1 1
0.750000000000	0.000000000000	0.000000000000 1 1 1
0.812500000000	0.062500000000	0.062500000000 1 1 1
0.875000000000	0.125000000000	0.000000000000 1 1 1
0.937500000000	0.187500000000	0.062500000000 1 1 1
0.875000000000	0.000000000000	0.125000000000 1 1 1
0.937500000000	0.062500000000	0.187500000000 1 1 1
0.750000000000	0.125000000000	0.125000000000 1 1 1
0.812500000000	0.187500000000	0.187500000000 1 1 1
0.750000000000	0.000000000000	0.250000000000 1 1 1
0.812500000000	0.062500000000	0.312500000000 1 1 1
0.875000000000	0.125000000000	0.250000000000 1 1 1
0.937500000000	0.187500000000	0.312500000000 1 1 1
0.875000000000	0.000000000000	0.375000000000 1 1 1
0.937500000000	0.062500000000	0.437500000000 1 1 1
0.750000000000	0.125000000000	0.375000000000 1 1 1
0.812500000000	0.187500000000	0.437500000000 1 1 1
0.750000000000	0.000000000000	0.500000000000 1 1 1
0.812500000000	0.062500000000	0.562500000000 1 1 1
0.875000000000	0.125000000000	0.500000000000 1 1 1
0.937500000000	0.187500000000	0.562500000000 1 1 1
0.875000000000	0.000000000000	0.625000000000 1 1 1
0.937500000000	0.062500000000	0.687500000000 1 1 1
0.750000000000	0.125000000000	0.625000000000 1 1 1
0.812500000000	0.187500000000	0.687500000000 1 1 1
0.750000000000	0.000000000000	0.750000000000 1 1 1
0.812500000000	0.062500000000	0.812500000000 1 1 1
0.875000000000	0.125000000000	0.750000000000 1 1 1
0.937500000000	0.187500000000	0.812500000000 1 1 1
0.875000000000	0.000000000000	0.875000000000 1 1 1
0.937500000000	0.062500000000	0.937500000000 1 1 1
0.750000000000	0.125000000000	0.875000000000 1 1 1
0.812500000000	0.187500000000	0.937500000000 1 1 1
0.750000000000	0.250000000000	0.000000000000 1 1 1
0.812500000000	0.312500000000	0.062500000000 1 1 1
0.875000000000	0.375000000000	0.000000000000 1 1 1
0.937500000000	0.437500000000	0.062500000000 1 1 1
0.875000000000	0.250000000000	0.125000000000 1 1 1
0.937500000000	0.312500000000	0.187500000000 1 1 1
0.750000000000	0.375000000000	0.125000000000 1 1 1
0.812500000000	0.437500000000	0.187500000000 1 1 1
0.750000000000	0.250000000000	0.250000000000 1 1 1
0.812500000000	0.312500000000	0.312500000000 1 1 1
0.875000000000	0.375000000000	0.250000000000 1 1 1
0.937500000000	0.437500000000	0.312500000000 1 1 1
0.875000000000	0.250000000000	0.375000000000 1 1 1
0.937500000000	0.312500000000	0.437500000000 1 1 1
0.750000000000	0.375000000000	0.375000000000 1 1 1
0.812500000000	0.437500000000	0.437500000000 1 1 1
0.750000000000	0.250000000000	0.500000000000 1 1 1
0.812500000000	0.312500000000	0.562500000000 1 1 1
0.875000000000	0.375000000000	0.500000000000 1 1 1
0.937500000000	0.437500000000	0.562500000000 1 1 1
0.875000000000	0.250000000000	0.625000000000 1 1 1
0.937500000000	0.312500000000	0.687500000000 1 1 1
0.750000000000	0.375000000000	0.625000000000 1 1 1
0.812500000000	0.437500000000	0.687500000000 1 1 1
0.750000000000	0.250000000000	0.750000000000 1 1 1
0.812500000000	0.312500000000	0.812500000000 1 1 1
0.875000000000	0.375000000000	0.750000000000 1 1 1
0.937500000000	0.437500000000	0.812500000000 1 1 1
0.875000000000	0.250000000000	0.875000000000 1 1 1
0.937500000000	0.312500000000	0.937500000000 1 1 1
0.750000000000	0.375000000000	0.875000000000 1 1 1
0.812500000000	0.437500000000	0.937500000000 1 1 1
0.750000000000	0.500000000000	0.000000000000 1 1 1
0.812500000000	0.562500000000	0.062500000000 1 1 1
0.875000000000	0.625000000000	0.000000000000 1 1 1
0.937500000000	0.687500000000	0.062500000000 1 1 1
0.875000000000	0.500000000000	0.125000000000 1 1 1
0.937500000000	0.562500000000	0.187500000000 1 1 1
0.750000000000	0.625000000000	0.125000000000 1 1 1
0.812500000000	0.687500000000	0.187500000000 1 1 1
0.750000000000	0.500000000000	0.250000000000 1 1 1
0.812500000000	0.562500000000	0.312500000000 1 1 1
0.875000000000	0.625000000000	0.250000000000 1 1 1
0.937500000000	0.687500000000	0.312500000000 1 1 1
0.875000000000	0.500000000000	0.375000000000 1 1 1
0.937500000000	0.562500000000	0.437500000000 1 1 1
0.750000000000	0.625000000000	0.375000000000 1 1 1
0.812500000000	0.687500000000	0.437500000000 1 1 1
0.750000000000	0.500000000000	0.500000000000 1 1 1
0.812500000000	0.562500000000	0.562500000000 1 1 1
0.875000000000	0.625000000000	0.500000000000 1 1 1
0.937500000000	0.687500000000	0.562500000000 1 1 1
0.875000000000	0.500000000000	0.625000000000 1 1 1
0.937500000000	0.562500000000	0.687500000000 1 1 1
0.750000000000	0.625000000000	0.625000000000 1 1 1
0.812500000000	0.687500000000	0.687500000000 1 1 1
0.750000000000	0.500000000000	0.750000000000 1 1 1
0.812500000000	0.562500000000	0.812500000000 1 1 1
0.875000000000	0.625000000000	0.750000000000 1 1 1
0.937500000000	0.687500000000	0.812500000000 1 1 1
0.875000000000	0.500000000000	0.875000000000 1 1 1
0.937500000000	0.562500000000	0.937500000000 1 1 1
0.750000000000	0.625000000000	0.875000000000 1 1 1
0.812500000000	0.687500000000	0.937500000000 1 1 1
0.750000000000	0.750000000000	0.000000000000 1 1 1
0.812500000000	0.812500000000	0.062500000000 1 1 1
0.875000000000	0.875000000000	0.000000000000 1 1 1
0.937500000000	0.937500000000	0.062500000000 1 1 1
0.875000000000	0.750000000000	0.125000000000 1 1 1
0.937500000000	0.812500000000	0.187500000000 1 1 1
0.750000000000	0.875000000000	0.125000000000 1 1 1
0.812500000000	0.937500000000	0.187500000000 1 1 1
0.750000000000	0.750000000000	0.250000000000 1 1 1
0.812500000000	0.812500000000	0.312500000000 1 1 1
0.875000000000	0.875000000000	0.250000000000 1 1 1
0.937500000000	0.937500000000	0.312500000000 1 1 1
0.875000000000	0.750000000000	0.375000000000 1 1 1
0.937500000000	0.812500000000	0.437500000000 1 1 1
0.750000000000	0.875000000000	0.375000000000 1 1 1
0.812500000000	0.937500000000	0.437500000000 1 1 1
0.750000000000	0.750000000000	0.500000000000 1 1 1
0.812500000000	0.812500000000	0.562500000000 1 1 1
0.875000000000	0.875000000000	0.500000000000 1 1 1
0.937500000000	0.937500000000	0.562500000000 1 1 1
0.875000000000	0.750000000000	0.625000000000 1 1 1
0.937500000000	0.812500000000	0.687500000000 1 1 1
0.750000000000	0.875000000000	0.625000000000 1 1 1
0.812500000000	0.937500000000	0.687500000000 1 1 1
0.750000000000	0.750000000000	0.750000000000 1 1 1
0.812500000000	0.812500000000	0.812500000000 1 1 1
0.875000000000	0.875000000000	0.750000000000 1 1 1
0.937500000000	0.937500000000	0.812500000000 1 1 1
0.875000000000	0.750000000000	0.875000000000 1 1 1
0.937500000000	0.812500000000	0.937500000000 1 1 1
0.750000000000	0.875000000000	0.875000000000 1 1 1
0.812500000000	0.937500000000	0.937500000000 1 1 1
