%BLOCK LATTICE_CART
   2.807406101100000   0.000000000000000   0.000000000000000
   1.403703050550000   2.431285002292024   0.000000000000000
   0.000000000000003   0.000000000000002  46.090355313593427
%END BLOCK LATTICE_CART
%BLOCK POSITIONS_FRAC
    Al   0.000000000000000   0.000000000000000   0.000117287039882
    Al   0.333333333300000   0.333333333300000   0.049797810348134
    Al   0.666666666700000   0.666666666700000   0.099416439818718
    Al   0.000000000000000   0.000000000000000   0.149354535614044
    Al   0.333333333300000   0.333333333300000   0.198790924782930
    Al   0.833333333300000   0.833333333300000   0.250858584229302
    Al   0.166666666700000   0.166666666700000   0.300279461603618
    Al   0.500000000000000   0.500000000000000   0.350280621218027
    Al   0.833333333300000   0.833333333300000   0.399837766422307
    Al   0.166666666700000   0.166666666700000   0.449999310817903
    Al   0.833333333300000   0.833333333300000   0.500160970880631
    Al   0.500000000000000   0.500000000000000   0.549718336794522
    Al   0.166666666700000   0.166666666700000   0.599719758456922
    Al   0.833333333300000   0.833333333300000   0.649140859490335
    Al   0.333333333300000   0.333333333300000   0.701208958370298
    Al   0.000000000000000   0.000000000000000   0.750645671720458
    Al   0.666666666700000   0.666666666700000   0.800584209744313
    Al   0.333333333300000   0.333333333300000   0.850203152768093
    Al   0.000000000000000   0.000000000000000   0.899883801155152
    Al   0.666666666700000   0.666666666700000   0.950000558394020
%END BLOCK POSITIONS_FRAC
%BLOCK SPECIES_POT
    Al al.lda.recpot                                                                          
%END BLOCK SPECIES_POT
%BLOCK ION_OPTIMIZATION
           0           0           1
           0           0           1
           0           0           1
           0           0           1
           0           0           1
           0           0           1
           0           0           1
           0           0           1
           0           0           1
           0           0           1
           0           0           1
           0           0           1
           0           0           1
           0           0           1
           0           0           1
           0           0           1
           0           0           1
           0           0           1
           0           0           1
           0           0           1
%END BLOCK ION_OPTIMIZATION
