%BLOCK LATTICE_CART
3.824282422140837 0 0
0 3.824282422140837 0
0 0 21.633408270946408
%END BLOCK LATTICE_CART
%BLOCK POSITIONS_FRAC
 Si  0.0                 0.0                 0.0
 Si  0.5                 0.0                 0.0625
 Si  0.5                 0.5                 0.125
 Si  0.0                 0.5                 0.1875
 Si  0.0                 0.0                 0.25  
 Si  0.5                 0.0                 0.3125
 Si  0.5                 0.5                 0.375
 Si  0.0                 0.5                 0.4375
 Si  0.0                 0.0                 0.5
%END BLOCK POSITIONS_FRAC
%BLOCK SPECIES_POT
Si si.lda.recpot 
%END BLOCK SPECIES_POT


