%BLOCK LATTICE_CART
3.860855221309    0.000000000000    0.000000000000    
-1.930427610655    3.343598701988    0.000000000000    
0.000000000000    0.000000000000    6.393576246489    
%END BLOCK LATTICE_CART
%BLOCK POSITIONS_FRAC
Si    0.333333333333    0.666666666667    0.063100000000
Si    0.666666666667    0.333333333333    0.563100000000
Si    0.333333333333    0.666666666667    0.436900000000
Si    0.666666666667    0.333333333333    0.936900000000
%END BLOCK POSITIONS_FRAC
%BLOCK SPECIES_POT
Si si.gga.recpot
%END BLOCK SPECIES_POT
