%BLOCK LATTICE_CART
0.000000000000    2.044978239813    2.044978239813    
2.044978239813    0.000000000000    2.044978239813    
2.044978239813    2.044978239813    0.000000000000    
%END BLOCK LATTICE_CART
%BLOCK POSITIONS_FRAC
Al    0.000000000000    0.000000000000    0.000000000000
%END BLOCK POSITIONS_FRAC
%BLOCK SPECIES_POT
Al al.gga.recpot
%END BLOCK SPECIES_POT
