ATOMIC_SPECIES
Al  Al_mass  Al_pesudopotential
As  As_mass  As_pesudopotential
H  H_mass  H_pesudopotential
O  O_mass  O_pesudopotential

NUMERICAL_ORBITAL
Al_orbital
As_orbital
H_orbital
O_orbital

LATTICE_CONSTANT
1.889727000000

LATTICE_VECTORS
48.685183592614  0.000000000000  0.000000000000
0.000000000000  30.388122000006  0.000000000000
0.000000000000  0.000000000000  51.638435192407

ATOMIC_POSITIONS
Direct

Al
0
540
0.999881108163  0.015639122515  0.009891531585  0  0  0
0.000094244303  0.015867325797  0.676843761347  0  0  0
0.333365074661  0.015613884047  0.343254630537  0  0  0
0.666772836417  0.015774707922  0.010074719033  0  0  0
0.666765802688  0.015798690386  0.676808373258  0  0  0
0.332809537197  0.007531466959  0.557008169858  0  0  0
0.666122600370  0.007470373091  0.223672386289  0  0  0
0.666132102485  0.007508733214  0.890326992306  0  0  0
0.999485717718  0.007513764360  0.557017341289  0  0  0
0.001560008417  0.015821962549  0.119620143860  0  0  0
0.000460883930  0.015843933245  0.786402481045  0  0  0
0.333830407651  0.015755734017  0.453032742128  0  0  0
0.667136561070  0.015559814270  0.119675499111  0  0  0
0.667117506115  0.015817787110  0.786405931944  0  0  0
0.166635763768  0.014213804614  0.342683704897  0  0  0
0.500040299507  0.014643747077  0.010022173202  0  0  0
0.500000833711  0.014647296710  0.676713534836  0  0  0
0.833338206149  0.014736818786  0.343350769110  0  0  0
0.165345574843  0.002218871135  0.223649885760  0  0  0
0.164802451250  0.007666122266  0.890058313703  0  0  0
0.498144355437  0.007681481461  0.556758519863  0  0  0
0.831471081739  0.007647716974  0.223380597740  0  0  0
0.831456590026  0.007671445959  0.890077505012  0  0  0
0.162304632748  0.985086339823  0.439392096689  0  0  0
0.495188918179  0.982842860385  0.105511585045  0  0  0
0.495596018310  0.982770448825  0.772017523397  0  0  0
0.828903905469  0.983209234445  0.438860209154  0  0  0
0.083290760030  0.015309704061  0.009331234590  0  0  0
0.083558172836  0.015072270309  0.676411799736  0  0  0
0.416847497015  0.015154912782  0.343034884618  0  0  0
0.750230049448  0.015114736019  0.009759475538  0  0  0
0.750228707401  0.015110500135  0.676447663266  0  0  0
0.082375057737  0.016152054905  0.563055735417  0  0  0
0.415546355698  0.015731207716  0.229509490454  0  0  0
0.415745006669  0.015915945871  0.896238089636  0  0  0
0.749040918185  0.015925762675  0.562970666563  0  0  0
0.084493754968  0.014608318917  0.120906180160  0  0  0
0.083669424828  0.013547827744  0.789623698354  0  0  0
0.417001996043  0.013546603707  0.456224373213  0  0  0
0.750541274587  0.013189228237  0.122887643319  0  0  0
0.750338917101  0.013513119682  0.789588822750  0  0  0
0.249874993932  0.014835076480  0.342437269152  0  0  0
0.583215492520  0.015382314191  0.009498972070  0  0  0
0.583206962823  0.015336462717  0.676187891481  0  0  0
0.916537985175  0.015419909241  0.342817906354  0  0  0
0.248351644496  0.013162849983  0.229612007364  0  0  0
0.249516410817  0.015140859195  0.897203733357  0  0  0
0.582802783685  0.015133972446  0.563900891063  0  0  0
0.916157841747  0.015192928821  0.230572923494  0  0  0
0.916089920749  0.015076253807  0.897143863779  0  0  0
0.253252360112  0.016844988746  0.453533032768  0  0  0
0.586271355020  0.016549858646  0.120201807049  0  0  0
0.586383866467  0.016642434234  0.786883266913  0  0  0
0.919749498810  0.016600604093  0.453513789596  0  0  0
0.124862811764  0.060574685407  0.054342039027  0  0  0
0.126192109551  0.061555080036  0.722424373573  0  0  0
0.459516390076  0.061530598940  0.389036441983  0  0  0
0.792972319357  0.061566881867  0.055834623220  0  0  0
0.792868103716  0.061559033871  0.722422295561  0  0  0
0.125143677779  0.061874579702  0.610287134550  0  0  0
0.458406405857  0.061846164029  0.276913091438  0  0  0
0.458524429931  0.061881181475  0.943611723475  0  0  0
0.791805057356  0.061874047837  0.610292609677  0  0  0
0.125722683027  0.061961779013  0.165586597551  0  0  0
0.125133256055  0.060928903486  0.830265348884  0  0  0
0.458457315111  0.060940825324  0.496960356381  0  0  0
0.791824200133  0.060837791147  0.163586815804  0  0  0
0.791776984023  0.060923604346  0.830288888500  0  0  0
0.291742950818  0.060866763243  0.387389706428  0  0  0
0.624975904140  0.060793312575  0.054115236584  0  0  0
0.624996316168  0.060789098219  0.720748384895  0  0  0
0.958297941146  0.060797066158  0.387401955851  0  0  0
0.291819466215  0.061094461027  0.276456281449  0  0  0
0.292025365638  0.061151474700  0.943067146955  0  0  0
0.625294903286  0.061159165632  0.609834255903  0  0  0
0.958557086719  0.061065240472  0.276425846349  0  0  0
0.958530871920  0.061119396220  0.943111392929  0  0  0
0.291772966251  0.061968396356  0.498596538025  0  0  0
0.625051582790  0.062031194206  0.165366038569  0  0  0
0.625115038036  0.062014566806  0.831984476248  0  0  0
0.958466448704  0.062050136898  0.498701800266  0  0  0
0.042007003321  0.060554017152  0.054074395878  0  0  0
0.042591896826  0.060676542955  0.721452018367  0  0  0
0.375931034384  0.060655621081  0.388055606321  0  0  0
0.709299625255  0.060695869341  0.054842281557  0  0  0
0.709256942116  0.060680133550  0.721461164099  0  0  0
0.041439722135  0.062071173887  0.610551875085  0  0  0
0.374763334444  0.061968342472  0.277097035816  0  0  0
0.374830242171  0.062068838712  0.943869238086  0  0  0
0.708118674208  0.062077391652  0.610556492952  0  0  0
0.042093932065  0.062265528490  0.165472454075  0  0  0
0.041722235659  0.062324302665  0.832109693080  0  0  0
0.375045840397  0.062351969427  0.498794465410  0  0  0
0.708389215779  0.062380588957  0.165529166060  0  0  0
0.708389540964  0.062328142371  0.832128402637  0  0  0
0.206892510457  0.060960836039  0.388317377315  0  0  0
0.539978649079  0.060937919743  0.055168966666  0  0  0
0.540024466969  0.060967530894  0.721850485201  0  0  0
0.873369175120  0.060927708642  0.388447285140  0  0  0
0.208108336189  0.061457405277  0.276948820639  0  0  0
0.208150450277  0.061524411527  0.943522642631  0  0  0
0.541389924989  0.061566242004  0.610351835031  0  0  0
0.874708992531  0.061520833460  0.276958659012  0  0  0
0.874638441961  0.061561272791  0.943666644521  0  0  0
0.208517424048  0.063703996130  0.499100186611  0  0  0
0.541736953998  0.063536552853  0.165692111402  0  0  0
0.541839918812  0.063597531396  0.832392321635  0  0  0
0.875167887975  0.063605181203  0.499059360367  0  0  0
0.000000000000  0.130439996605  0.000000000000  0  0  0
0.000000000000  0.130439996605  0.666666666668  0  0  0
0.333333333332  0.130439996605  0.333333333332  0  0  0
0.666666666668  0.130439996605  0.000000000000  0  0  0
0.666666666668  0.130439996605  0.666666666668  0  0  0
0.000000000000  0.130439996605  0.555556674713  0  0  0
0.333333333332  0.130439996605  0.222223341380  0  0  0
0.333333333332  0.130439996605  0.888890008047  0  0  0
0.666666666668  0.130439996605  0.555556674713  0  0  0
0.000000000000  0.130439996605  0.111110001801  0  0  0
0.000000000000  0.130439996605  0.777776668467  0  0  0
0.333333333332  0.130439996605  0.444443335133  0  0  0
0.666666666668  0.130439996605  0.111110001801  0  0  0
0.666666666668  0.130439996605  0.777776668467  0  0  0
0.166666666675  0.130439996605  0.333333333332  0  0  0
0.500000000007  0.130439996605  0.000000000000  0  0  0
0.500000000007  0.130439996605  0.666666666668  0  0  0
0.833333333341  0.130439996605  0.333333333332  0  0  0
0.166666666675  0.130439996605  0.222223341380  0  0  0
0.166666666675  0.130439996605  0.888890008047  0  0  0
0.500000000007  0.130439996605  0.555556674713  0  0  0
0.833333333341  0.130439996605  0.222223341380  0  0  0
0.833333333341  0.130439996605  0.888890008047  0  0  0
0.166666666675  0.130439996605  0.444443335133  0  0  0
0.500000000007  0.130439996605  0.111110001801  0  0  0
0.500000000007  0.130439996605  0.777776668467  0  0  0
0.833333333341  0.130439996605  0.444443335133  0  0  0
0.083333333327  0.130439996605  0.000000000000  0  0  0
0.083333333327  0.130439996605  0.666666666668  0  0  0
0.416666666661  0.130439996605  0.333333333332  0  0  0
0.749999999993  0.130439996605  0.000000000000  0  0  0
0.749999999993  0.130439996605  0.666666666668  0  0  0
0.083333333327  0.130439996605  0.555556674713  0  0  0
0.416666666661  0.130439996605  0.222223341380  0  0  0
0.416666666661  0.130439996605  0.888890008047  0  0  0
0.749999999993  0.130439996605  0.555556674713  0  0  0
0.083333333327  0.130439996605  0.111110001801  0  0  0
0.083333333327  0.130439996605  0.777776668467  0  0  0
0.416666666661  0.130439996605  0.444443335133  0  0  0
0.749999999993  0.130439996605  0.111110001801  0  0  0
0.749999999993  0.130439996605  0.777776668467  0  0  0
0.250000000089  0.130439996605  0.333333333332  0  0  0
0.583333333421  0.130439996605  0.000000000000  0  0  0
0.583333333421  0.130439996605  0.666666666668  0  0  0
0.916666666755  0.130439996605  0.333333333332  0  0  0
0.250000000089  0.130439996605  0.222223341380  0  0  0
0.250000000089  0.130439996605  0.888890008047  0  0  0
0.583333333421  0.130439996605  0.555556674713  0  0  0
0.916666666755  0.130439996605  0.222223341380  0  0  0
0.916666666755  0.130439996605  0.888890008047  0  0  0
0.250000000089  0.130439996605  0.444443335133  0  0  0
0.583333333421  0.130439996605  0.111110001801  0  0  0
0.583333333421  0.130439996605  0.777776668467  0  0  0
0.916666666755  0.130439996605  0.444443335133  0  0  0
0.124867686477  0.200281207863  0.054362915642  0  0  0
0.126192377134  0.199332641575  0.722416361032  0  0  0
0.459516562473  0.199355884042  0.389029116348  0  0  0
0.792973270496  0.199314865108  0.055828267578  0  0  0
0.792867310334  0.199328137751  0.722414797844  0  0  0
0.125136742067  0.198916826294  0.610336298758  0  0  0
0.458396761338  0.198944473650  0.276961198113  0  0  0
0.458513885237  0.198911850943  0.943660412647  0  0  0
0.791796602068  0.198916773294  0.610341665923  0  0  0
0.125723113715  0.198959133338  0.165616271412  0  0  0
0.125115539831  0.199908625626  0.830291449123  0  0  0
0.458439050190  0.199896865245  0.496986805644  0  0  0
0.791807266508  0.200002925410  0.163610540529  0  0  0
0.791758848025  0.199914280662  0.830314620615  0  0  0
0.291747896668  0.199989020683  0.387406415881  0  0  0
0.624980632286  0.200060584160  0.054132904178  0  0  0
0.625000755106  0.200065295715  0.720765178257  0  0  0
0.958302087053  0.200058117576  0.387418040930  0  0  0
0.291815008502  0.199788107754  0.276461618672  0  0  0
0.292029085072  0.199738123009  0.943064122699  0  0  0
0.625298162306  0.199730718808  0.609834427536  0  0  0
0.958563172177  0.199823650899  0.276423006638  0  0  0
0.958529572019  0.199773277429  0.943107363728  0  0  0
0.291821657675  0.198926570105  0.498623612420  0  0  0
0.625098819847  0.198867068026  0.165390932045  0  0  0
0.625164590017  0.198882467747  0.832010487478  0  0  0
0.958514441803  0.198847263744  0.498726609538  0  0  0
0.042010355758  0.200298586650  0.054095849908  0  0  0
0.042592992905  0.200177283528  0.721462000859  0  0  0
0.375930605455  0.200199683221  0.388065349134  0  0  0
0.709300388929  0.200159250608  0.054854728646  0  0  0
0.709257139700  0.200173772267  0.721471849001  0  0  0
0.041426854669  0.198835174735  0.610559694774  0  0  0
0.374746294224  0.198929430992  0.277108554047  0  0  0
0.374816915781  0.198838739427  0.943877820041  0  0  0
0.708105129964  0.198830417294  0.610564150431  0  0  0
0.042077072235  0.198634150478  0.165488714901  0  0  0
0.041703303241  0.198556795682  0.832131339321  0  0  0
0.375027683005  0.198528967252  0.498815870511  0  0  0
0.708371348502  0.198505354381  0.165546901444  0  0  0
0.708371921766  0.198553500924  0.832149229961  0  0  0
0.206900992268  0.199899216973  0.388324578887  0  0  0
0.539985495107  0.199924847946  0.055173961946  0  0  0
0.540030956570  0.199898054797  0.721854658642  0  0  0
0.873377323658  0.199935213445  0.388451006741  0  0  0
0.208101210353  0.199455397506  0.276933448428  0  0  0
0.208153741359  0.199302665678  0.943545219764  0  0  0
0.541390844126  0.199258960546  0.610376220299  0  0  0
0.874710280391  0.199305802591  0.276984066044  0  0  0
0.874638230940  0.199265779099  0.943691097811  0  0  0
0.208534263310  0.197185446102  0.499085876302  0  0  0
0.541753661545  0.197355544720  0.165675621116  0  0  0
0.541856747512  0.197295657882  0.832375798119  0  0  0
0.875185664285  0.197286066211  0.499043031254  0  0  0
0.999880520216  0.245200433857  0.009919845789  0  0  0
0.000092078806  0.244965105978  0.676878011230  0  0  0
0.333366239953  0.245229601821  0.343287837609  0  0  0
0.666770221738  0.245068345719  0.010107861189  0  0  0
0.666763767616  0.245038544289  0.676842787250  0  0  0
0.332867483507  0.253678537408  0.557000990123  0  0  0
0.666179604427  0.253731310948  0.223662878516  0  0  0
0.666190016700  0.253698554206  0.890318441552  0  0  0
0.999543150595  0.253694228692  0.557010066154  0  0  0
0.001565993772  0.245092358808  0.119650040127  0  0  0
0.000475699768  0.245052292433  0.786430837902  0  0  0
0.333844676326  0.245139123949  0.453060891525  0  0  0
0.667149907070  0.245346322721  0.119702923420  0  0  0
0.667131352445  0.245079639854  0.786433217636  0  0  0
0.166634976291  0.246673568038  0.342698627435  0  0  0
0.500040132041  0.246262369444  0.010042758017  0  0  0
0.500001685184  0.246259339472  0.676735792814  0  0  0
0.833339225016  0.246170318182  0.343371538697  0  0  0
0.165268022236  0.258810322900  0.223665308091  0  0  0
0.164782095172  0.253086156397  0.890048466632  0  0  0
0.498125094098  0.253069890404  0.556750441681  0  0  0
0.831450878795  0.253104133328  0.223369655701  0  0  0
0.831436467435  0.253080220829  0.890069940288  0  0  0
0.162312696383  0.275705353808  0.439418364984  0  0  0
0.495191827849  0.277933287177  0.105535355448  0  0  0
0.495600295266  0.278011298229  0.772034994189  0  0  0
0.828907566072  0.277571862015  0.438890562610  0  0  0
0.083294076293  0.245531890655  0.009360643224  0  0  0
0.083559401653  0.245805654596  0.676436095482  0  0  0
0.416849819094  0.245720899154  0.343059477690  0  0  0
0.750232549655  0.245759168329  0.009787940038  0  0  0
0.750230647504  0.245762213786  0.676474557183  0  0  0
0.082288154009  0.244830656061  0.563075814187  0  0  0
0.415472721361  0.245255034331  0.229517673079  0  0  0
0.415658640535  0.245064155452  0.896257886165  0  0  0
0.748953611699  0.245055140763  0.562990193486  0  0  0
0.084492693985  0.246334502397  0.120903164624  0  0  0
0.083666327789  0.247324342161  0.789619309792  0  0  0
0.416997684490  0.247322593029  0.456220597016  0  0  0
0.750538408842  0.247684450201  0.122885648569  0  0  0
0.750334882113  0.247357153854  0.789585827129  0  0  0
0.249875577031  0.246051133595  0.342445232608  0  0  0
0.583216864192  0.245492582424  0.009514036725  0  0  0
0.583208057924  0.245539538491  0.676203186967  0  0  0
0.916539562825  0.245452446926  0.342833143836  0  0  0
0.248337308144  0.247806273680  0.229563387492  0  0  0
0.249517013611  0.245760542913  0.897173077313  0  0  0
0.582803081578  0.245770062609  0.563871425447  0  0  0
0.916157976735  0.245713884218  0.230545757081  0  0  0
0.916089140539  0.245829316560  0.897113777470  0  0  0
0.253291530879  0.244065729202  0.453534795041  0  0  0
0.586307486190  0.244356269805  0.120207123443  0  0  0
0.586420541305  0.244266993434  0.786886375266  0  0  0
0.919787444425  0.244301418803  0.453519214600  0  0  0
0.124916617578  0.989023233433  0.030935217623  0  0  0
0.125060157609  0.989761075712  0.698623731534  0  0  0
0.458354304811  0.989746141842  0.365234158163  0  0  0
0.791666425235  0.989710289235  0.031996154912  0  0  0
0.791723768768  0.989740629316  0.698637574721  0  0  0
0.124469421031  0.992187795988  0.584290409123  0  0  0
0.457713324467  0.992225079739  0.250863816742  0  0  0
0.457804766157  0.992201041066  0.917600621991  0  0  0
0.791135827883  0.992190485653  0.584280796356  0  0  0
0.126220460840  0.989570439710  0.142509201156  0  0  0
0.125734630815  0.988440418138  0.809180216275  0  0  0
0.459040105464  0.988459326646  0.475852855149  0  0  0
0.792664277572  0.988476430232  0.142378905951  0  0  0
0.792404142786  0.988454578056  0.809149783791  0  0  0
0.291529367548  0.989149816350  0.364407170638  0  0  0
0.624902368572  0.989123463692  0.031045706651  0  0  0
0.624887699895  0.989071252542  0.697733457334  0  0  0
0.958226165109  0.989129249421  0.364351810929  0  0  0
0.291470948004  0.991274610511  0.250232498317  0  0  0
0.292029652575  0.990624742157  0.917317444458  0  0  0
0.625332597380  0.990659863693  0.584016434120  0  0  0
0.958690684784  0.990651359422  0.250589211603  0  0  0
0.958623210641  0.990642133907  0.917290910100  0  0  0
0.293307958771  0.988788612056  0.476096638311  0  0  0
0.626528394218  0.988954238335  0.142754857848  0  0  0
0.626571486830  0.988900476401  0.809435226200  0  0  0
0.959906728852  0.988930686610  0.476146332004  0  0  0
0.041737226871  0.988897190424  0.030936346040  0  0  0
0.041877434077  0.989169134996  0.697973234207  0  0  0
0.375144714588  0.989197147865  0.364541528997  0  0  0
0.708521273450  0.989230772052  0.031299500232  0  0  0
0.708531827172  0.989165310112  0.697977573448  0  0  0
0.040262715861  0.991810042103  0.584466077358  0  0  0
0.373396606670  0.991877472370  0.250894800537  0  0  0
0.373628825268  0.991822863707  0.917756698873  0  0  0
0.706928260609  0.991817401959  0.584453466477  0  0  0
0.042164619506  0.989744546191  0.142611426939  0  0  0
0.040489787607  0.989322916677  0.809886451793  0  0  0
0.373849613262  0.989363671361  0.476566377617  0  0  0
0.707223078174  0.989442444367  0.143229662530  0  0  0
0.707155930347  0.989338919704  0.809879275887  0  0  0
0.208383994293  0.989425069622  0.364683489377  0  0  0
0.541807696852  0.989266653899  0.031498006589  0  0  0
0.541782553679  0.989294173474  0.698196117558  0  0  0
0.875113090031  0.989281971071  0.364804216694  0  0  0
0.206605199091  0.991183717993  0.251992774889  0  0  0
0.206198532901  0.991234043538  0.917112910558  0  0  0
0.539525411853  0.991294409311  0.583843783519  0  0  0
0.872842200142  0.991281841556  0.250457949132  0  0  0
0.872851927068  0.991287916041  0.917158515637  0  0  0
0.206833392732  0.999180838837  0.468761575101  0  0  0
0.539870708675  0.998900637083  0.135399625666  0  0  0
0.540010249519  0.999004279099  0.802133207168  0  0  0
0.873376173272  0.998994005698  0.468788751203  0  0  0
0.000258120482  0.064669128608  0.082254577584  0  0  0
0.000150623375  0.064638779870  0.748988362230  0  0  0
0.333532284257  0.064625561124  0.415664931754  0  0  0
0.666819009868  0.064585295950  0.082354036481  0  0  0
0.666817656716  0.064635687196  0.748996738098  0  0  0
0.333216441358  0.063516024024  0.638320224657  0  0  0
0.666535584479  0.063528897181  0.304954775990  0  0  0
0.666537244349  0.063524728242  0.971621479403  0  0  0
0.999869181159  0.063513638508  0.638327380432  0  0  0
0.333018953149  0.067418093243  0.192879442048  0  0  0
0.333316722166  0.067350737909  0.859626839715  0  0  0
0.666626473480  0.067325370126  0.526309112459  0  0  0
0.000219873798  0.067233706061  0.192870434268  0  0  0
0.999975048495  0.067362088837  0.859619963836  0  0  0
0.166790517571  0.061967484379  0.418038586969  0  0  0
0.500057073338  0.061532641335  0.085023954000  0  0  0
0.500121452668  0.061566129368  0.751684787313  0  0  0
0.833441882356  0.061618041974  0.418283168156  0  0  0
0.166521492796  0.063664976670  0.305022800902  0  0  0
0.166636377626  0.063569296176  0.971521917704  0  0  0
0.499943125202  0.063186682827  0.638426029788  0  0  0
0.833266387809  0.063227807281  0.305049221777  0  0  0
0.833229105029  0.063186455362  0.971761459711  0  0  0
0.166219684489  0.067023524925  0.525773810088  0  0  0
0.499458007971  0.067049941281  0.192378966247  0  0  0
0.499569425909  0.067057736047  0.859113730144  0  0  0
0.832904308998  0.067038843193  0.525784106889  0  0  0
0.083306676364  0.063666190005  0.083055172347  0  0  0
0.083668888738  0.062388535053  0.750875568470  0  0  0
0.416997159049  0.062410545168  0.417499207580  0  0  0
0.750384457327  0.062339522757  0.084225973039  0  0  0
0.750334437242  0.062402347555  0.750861999755  0  0  0
0.083362779440  0.063406184509  0.638084875795  0  0  0
0.416656380681  0.063442426351  0.304693656238  0  0  0
0.416729656174  0.063365332093  0.971411653913  0  0  0
0.750032236142  0.063389622184  0.638087283367  0  0  0
0.083590574354  0.064453181471  0.193472485444  0  0  0
0.083825451374  0.065281294943  0.859639197635  0  0  0
0.417144864080  0.065285964158  0.526328712022  0  0  0
0.750499087570  0.065298191403  0.193000990003  0  0  0
0.750478475326  0.065288271361  0.859662140343  0  0  0
0.250179895847  0.064588007430  0.415778824308  0  0  0
0.583414669763  0.064526700999  0.082476112902  0  0  0
0.583470092783  0.064549262632  0.749138940312  0  0  0
0.916773698133  0.064543581537  0.415800758182  0  0  0
0.250140572805  0.063644618044  0.304513628640  0  0  0
0.250170226374  0.063493513748  0.970901298668  0  0  0
0.583474823230  0.063293972531  0.637713000408  0  0  0
0.916760608550  0.063336835679  0.304332318097  0  0  0
0.916738849749  0.063294651636  0.971022486523  0  0  0
0.250071692716  0.064380823528  0.526892234383  0  0  0
0.583311790817  0.064400769021  0.193539763771  0  0  0
0.583402708239  0.064421957362  0.860226602696  0  0  0
0.916718596733  0.064384840059  0.526902520621  0  0  0
0.125000000002  0.130439996605  0.027776665995  0  0  0
0.125000000002  0.130439996605  0.694443332661  0  0  0
0.458333333336  0.130439996605  0.361109999329  0  0  0
0.791666666668  0.130439996605  0.027776665995  0  0  0
0.791666666668  0.130439996605  0.694443332661  0  0  0
0.125000000002  0.130439996605  0.583333333283  0  0  0
0.458333333336  0.130439996605  0.249999999951  0  0  0
0.458333333336  0.130439996605  0.916666666615  0  0  0
0.791666666668  0.130439996605  0.583333333283  0  0  0
0.125000000002  0.130439996605  0.138889998190  0  0  0
0.125000000002  0.130439996605  0.805556664856  0  0  0
0.458333333336  0.130439996605  0.472223331524  0  0  0
0.791666666668  0.130439996605  0.138889998190  0  0  0
0.791666666668  0.130439996605  0.805556664856  0  0  0
0.291666666699  0.130439996605  0.361109999329  0  0  0
0.625000000033  0.130439996605  0.027776665995  0  0  0
0.625000000033  0.130439996605  0.694443332661  0  0  0
0.958333333365  0.130439996605  0.361109999329  0  0  0
0.291666666699  0.130439996605  0.249999999951  0  0  0
0.291666666699  0.130439996605  0.916666666615  0  0  0
0.625000000033  0.130439996605  0.583333333283  0  0  0
0.958333333365  0.130439996605  0.249999999951  0  0  0
0.958333333365  0.130439996605  0.916666666615  0  0  0
0.291666666699  0.130439996605  0.472223331524  0  0  0
0.625000000033  0.130439996605  0.138889998190  0  0  0
0.625000000033  0.130439996605  0.805556664856  0  0  0
0.958333333365  0.130439996605  0.472223331524  0  0  0
0.041666666673  0.130439996605  0.027776665995  0  0  0
0.041666666673  0.130439996605  0.694443332661  0  0  0
0.375000000007  0.130439996605  0.361109999329  0  0  0
0.708333333341  0.130439996605  0.027776665995  0  0  0
0.708333333341  0.130439996605  0.694443332661  0  0  0
0.041666666673  0.130439996605  0.583333333283  0  0  0
0.375000000007  0.130439996605  0.249999999951  0  0  0
0.375000000007  0.130439996605  0.916666666615  0  0  0
0.708333333341  0.130439996605  0.583333333283  0  0  0
0.041666666673  0.130439996605  0.138889998190  0  0  0
0.041666666673  0.130439996605  0.805556664856  0  0  0
0.375000000007  0.130439996605  0.472223331524  0  0  0
0.708333333341  0.130439996605  0.138889998190  0  0  0
0.708333333341  0.130439996605  0.805556664856  0  0  0
0.208333333328  0.130439996605  0.361109999329  0  0  0
0.541666666661  0.130439996605  0.027776665995  0  0  0
0.541666666661  0.130439996605  0.694443332661  0  0  0
0.874999999995  0.130439996605  0.361109999329  0  0  0
0.208333333328  0.130439996605  0.249999999951  0  0  0
0.208333333328  0.130439996605  0.916666666615  0  0  0
0.541666666661  0.130439996605  0.583333333283  0  0  0
0.874999999995  0.130439996605  0.249999999951  0  0  0
0.874999999995  0.130439996605  0.916666666615  0  0  0
0.208333333328  0.130439996605  0.472223331524  0  0  0
0.541666666661  0.130439996605  0.138889998190  0  0  0
0.541666666661  0.130439996605  0.805556664856  0  0  0
0.874999999995  0.130439996605  0.472223331524  0  0  0
0.000262044677  0.196233445069  0.082279449136  0  0  0
0.000157844078  0.196258387474  0.749007713199  0  0  0
0.333538254647  0.196272233923  0.415683742454  0  0  0
0.666824557611  0.196315354314  0.082374368812  0  0  0
0.666823060258  0.196261815853  0.749015397763  0  0  0
0.333210392692  0.197379498996  0.638328542005  0  0  0
0.666528809072  0.197369079397  0.304964638758  0  0  0
0.666529895536  0.197373512601  0.971630882229  0  0  0
0.999863178198  0.197381255146  0.638335680974  0  0  0
0.333037840443  0.193583876889  0.192946697339  0  0  0
0.333337453771  0.193676788822  0.859709777288  0  0  0
0.666648525449  0.193701119497  0.526390832617  0  0  0
0.000240899425  0.193772560484  0.192945762870  0  0  0
0.999995040643  0.193667111894  0.859703386103  0  0  0
0.166789799632  0.198897486066  0.418033183117  0  0  0
0.500058325989  0.199323894659  0.085018461124  0  0  0
0.500123876537  0.199287993761  0.751679665192  0  0  0
0.833444218975  0.199220531102  0.418274101616  0  0  0
0.166524584636  0.197231314915  0.305029010182  0  0  0
0.166640011262  0.197322785839  0.971542319188  0  0  0
0.499945708893  0.197708299077  0.638451419124  0  0  0
0.833269005149  0.197666982516  0.305074187627  0  0  0
0.833231397273  0.197709859338  0.971787513738  0  0  0
0.166232649790  0.193784389244  0.525747208492  0  0  0
0.499471433972  0.193758629473  0.192353404894  0  0  0
0.499583134356  0.193750091915  0.859087469380  0  0  0
0.832917859319  0.193769536812  0.525757366714  0  0  0
0.083309890157  0.197233046917  0.083072172672  0  0  0
0.083676932153  0.198484416861  0.750873467067  0  0  0
0.417004937502  0.198462364433  0.417496432683  0  0  0
0.750392260660  0.198533630206  0.084225170086  0  0  0
0.750341528530  0.198470883663  0.750860176021  0  0  0
0.083345781891  0.197482680967  0.638105849379  0  0  0
0.416637517223  0.197446707530  0.304714522308  0  0  0
0.416711063981  0.197525915853  0.971434250306  0  0  0
0.750014475596  0.197498738036  0.638108577141  0  0  0
0.083570664029  0.196501219685  0.193508697743  0  0  0
0.083799416099  0.195646409498  0.859674230694  0  0  0
0.417118834960  0.195644205508  0.526364750273  0  0  0
0.750472951533  0.195629074785  0.193034067114  0  0  0
0.750452791611  0.195641912879  0.859697951264  0  0  0
0.250184128426  0.196300710536  0.415790316221  0  0  0
0.583415588374  0.196362183503  0.082486962053  0  0  0
0.583471097819  0.196339366023  0.749148951441  0  0  0
0.916774299162  0.196344838150  0.415811266604  0  0  0
0.250129192267  0.197260308214  0.304509388193  0  0  0
0.250179985085  0.197402957695  0.970906067132  0  0  0
0.583482163227  0.197603291385  0.637720080544  0  0  0
0.916769936771  0.197559380524  0.304338079915  0  0  0
0.916744586915  0.197605351570  0.971029933884  0  0  0
0.250087465844  0.196497014381  0.526885270740  0  0  0
0.583326713728  0.196477794677  0.193532118769  0  0  0
0.583418714344  0.196455383849  0.860218688604  0  0  0
0.916734530904  0.196493989011  0.526894954192  0  0  0
0.124914943692  0.271839130056  0.030955788700  0  0  0
0.125059611142  0.271158974826  0.698637114333  0  0  0
0.458353496615  0.271172722406  0.365246619988  0  0  0
0.791664699568  0.271206017043  0.032013052198  0  0  0
0.791723462064  0.271178962235  0.698651726031  0  0  0
0.124448966406  0.268493941394  0.584290914230  0  0  0
0.457694158572  0.268457494632  0.250862897735  0  0  0
0.457784233548  0.268481556690  0.917600661164  0  0  0
0.791114433658  0.268489625903  0.584280334312  0  0  0
0.126220634114  0.271353445919  0.142513796611  0  0  0
0.125739307549  0.272372707584  0.809188551855  0  0  0
0.459044379501  0.272354425851  0.475861208408  0  0  0
0.792668482321  0.272339282007  0.142388608224  0  0  0
0.792409047212  0.272359253068  0.809157654188  0  0  0
0.291531109717  0.271711673374  0.364425930932  0  0  0
0.624900832069  0.271737679901  0.031065950701  0  0  0
0.624886735167  0.271789381757  0.697752605964  0  0  0
0.958224880741  0.271733046024  0.364369850364  0  0  0
0.291468507952  0.269626479905  0.250201307520  0  0  0
0.292022573552  0.270291908884  0.917291079761  0  0  0
0.625325628974  0.270257304814  0.583991424276  0  0  0
0.958682553261  0.270269675239  0.250567239959  0  0  0
0.958614673992  0.270282608786  0.917264054677  0  0  0
0.293330038499  0.272104914591  0.476131555857  0  0  0
0.626549037006  0.271946532480  0.142789946787  0  0  0
0.626592972870  0.271995194309  0.809470025963  0  0  0
0.959926530319  0.271970137670  0.476181722885  0  0  0
0.041738122115  0.271953515448  0.030952576764  0  0  0
0.041875477867  0.271699903210  0.697990009532  0  0  0
0.375145373481  0.271674015217  0.364560087696  0  0  0
0.708519500394  0.271639026118  0.031318005824  0  0  0
0.708530657675  0.271704233283  0.697995092992  0  0  0
0.040235017838  0.269228071890  0.584577215162  0  0  0
0.373374169808  0.269124471455  0.250982975958  0  0  0
0.373601677748  0.269215003739  0.917867333857  0  0  0
0.706900011635  0.269221525208  0.584563147578  0  0  0
0.042177991685  0.271177466680  0.142632479564  0  0  0
0.040514342741  0.271565920048  0.809905554778  0  0  0
0.373872697508  0.271526135488  0.476584870681  0  0  0
0.707246490066  0.271454893424  0.143247852641  0  0  0
0.707179039037  0.271551334442  0.809898045337  0  0  0
0.208387280253  0.271449409427  0.364699009796  0  0  0