ATOMIC_SPECIES
Al  Al_mass  Al_pesudopotential
As  As_mass  As_pesudopotential
H  H_mass  H_pesudopotential
O  O_mass  O_pesudopotential

NUMERICAL_ORBITAL
Al_orbital
As_orbital
H_orbital
O_orbital

LATTICE_CONSTANT
1.889727000000

LATTICE_VECTORS
48.685183592614  0.000000000000  0.000000000000
0.000000000000  30.388122000006  0.000000000000
0.000000000000  0.000000000000  51.638435192407

ATOMIC_POSITIONS
Direct

Al
0
540
0.000144740788  0.015615892118  0.009952565581  0  0  0
0.000144765488  0.015614381770  0.676618320954  0  0  0
0.333478170609  0.015615198685  0.343284276802  0  0  0
0.666811251673  0.015616010714  0.009952592119  0  0  0
0.666811278632  0.015614479243  0.676618338418  0  0  0
0.332755155395  0.007382824967  0.556946334084  0  0  0
0.666088186155  0.007384047565  0.223612760295  0  0  0
0.666088282337  0.007383371243  0.890280451240  0  0  0
0.999421740491  0.007382674614  0.556946339022  0  0  0
0.000384004582  0.015460022297  0.119765509165  0  0  0
0.000384038017  0.015458234931  0.786432224903  0  0  0
0.333717486689  0.015458074786  0.453098018806  0  0  0
0.667050523912  0.015460159573  0.119765521314  0  0  0
0.667050563899  0.015458351220  0.786432238378  0  0  0
0.166699902336  0.014809512784  0.343409356066  0  0  0
0.500033155130  0.014810332338  0.010077791169  0  0  0
0.500033140639  0.014809015818  0.676743366434  0  0  0
0.833366470595  0.014809467422  0.343409342939  0  0  0
0.164796637886  0.007605148902  0.223175013978  0  0  0
0.164796571406  0.007604576982  0.889842772156  0  0  0
0.498129835394  0.007604231115  0.556508610189  0  0  0
0.831463200705  0.007605118255  0.223175008652  0  0  0
0.831463135400  0.007604547670  0.889842771656  0  0  0
0.162201607203  0.979341613115  0.437644548012  0  0  0
0.495534929996  0.979341844040  0.104311517609  0  0  0
0.495534823664  0.979342089958  0.770979045855  0  0  0
0.828868105143  0.979341568180  0.437644539971  0  0  0
0.083734492484  0.014933019339  0.009799901312  0  0  0
0.083734438717  0.014931669216  0.676465619972  0  0  0
0.417067927322  0.014932581293  0.343131691236  0  0  0
0.750401033212  0.014933009534  0.009799903749  0  0  0
0.750400982004  0.014931651733  0.676465621338  0  0  0
0.082390835976  0.015587478514  0.562580084023  0  0  0
0.415724196737  0.015589016746  0.229246527058  0  0  0
0.415724158799  0.015588318978  0.895914324977  0  0  0
0.749057369383  0.015587485747  0.562580067037  0  0  0
0.083823377404  0.012737664645  0.122920264192  0  0  0
0.083823087296  0.012736399334  0.789587144837  0  0  0
0.417156659210  0.012736312084  0.456252873053  0  0  0
0.750489913395  0.012737695017  0.122920268898  0  0  0
0.750489626916  0.012736426007  0.789587154674  0  0  0
0.249785290485  0.015174734132  0.342815671065  0  0  0
0.583118491212  0.015175549300  0.009484040463  0  0  0
0.583118532773  0.015174105169  0.676149720606  0  0  0
0.916451849900  0.015174654456  0.342815645341  0  0  0
0.249456698830  0.014739997880  0.230262753231  0  0  0
0.249456722245  0.014738978266  0.896930433046  0  0  0
0.582789833418  0.014738594189  0.563596277649  0  0  0
0.916123260515  0.014739914604  0.230262759750  0  0  0
0.916123288058  0.014738894441  0.896930439863  0  0  0
0.252814580207  0.016068844946  0.453241604153  0  0  0
0.586147677778  0.016070775675  0.119909078435  0  0  0
0.586147867089  0.016069263480  0.786575848174  0  0  0
0.919481134181  0.016068710379  0.453241588725  0  0  0
0.126542101265  0.061681363962  0.056060843426  0  0  0
0.126541887054  0.061680844086  0.722727101624  0  0  0
0.459875368923  0.061681177382  0.389392937309  0  0  0
0.793208633814  0.061681347980  0.056060861567  0  0  0
0.793208421883  0.061680827592  0.722727120652  0  0  0
0.125176415984  0.061876794275  0.610282565584  0  0  0
0.458509742192  0.061877543360  0.276948585583  0  0  0
0.458509712707  0.061877364884  0.943616767736  0  0  0
0.791842963405  0.061876784804  0.610282566597  0  0  0
0.125141900483  0.060679002736  0.163488115119  0  0  0
0.125141844685  0.060678694358  0.830155703519  0  0  0
0.458475281158  0.060678626805  0.496821493597  0  0  0
0.791808413246  0.060679004237  0.163488105697  0  0  0
0.791808359587  0.060678697230  0.830155701205  0  0  0
0.291679083643  0.060967133280  0.387563906311  0  0  0
0.625012221110  0.060967758018  0.054231664502  0  0  0
0.625012241705  0.060966903977  0.720898170312  0  0  0
0.958345616101  0.060967048485  0.387563891917  0  0  0
0.291890387467  0.061170117260  0.276483039476  0  0  0
0.291890574510  0.061169920356  0.943151371250  0  0  0
0.625223576361  0.061169477019  0.609817159242  0  0  0
0.958556934974  0.061170044386  0.276483034652  0  0  0
0.958557124738  0.061169847952  0.943151367483  0  0  0
0.291779250136  0.062254235107  0.498754148828  0  0  0
0.625112267042  0.062255221549  0.165420619133  0  0  0
0.625112413468  0.062254410913  0.832088147305  0  0  0
0.958445802825  0.062254146641  0.498754192637  0  0  0
0.042727637340  0.060831895827  0.054985726435  0  0  0
0.042727650672  0.060831103528  0.721652234251  0  0  0
0.376061184233  0.060831464692  0.388317990817  0  0  0
0.709394119474  0.060831933260  0.054985746670  0  0  0
0.709394142633  0.060831133365  0.721652255222  0  0  0
0.041570806742  0.062086186171  0.610550958356  0  0  0
0.374904224822  0.062086916113  0.277216870290  0  0  0
0.374904170608  0.062086780598  0.943885105826  0  0  0
0.708237299749  0.062086218488  0.610550953242  0  0  0
0.041616574823  0.062589301294  0.165589908858  0  0  0
0.041616524679  0.062588583143  0.832257443159  0  0  0
0.374950029912  0.062588533413  0.498923388646  0  0  0
0.708283069285  0.062589348070  0.165589883897  0  0  0
0.708283029294  0.062588626083  0.832257428284  0  0  0
0.206403403216  0.061115520539  0.388671398605  0  0  0
0.539736532447  0.061115975168  0.055339318917  0  0  0
0.539736690240  0.061115334842  0.722005590184  0  0  0
0.873069942997  0.061115482542  0.388671380500  0  0  0
0.208048752021  0.061511835244  0.276965128017  0  0  0
0.208048644084  0.061511641699  0.943633415350  0  0  0
0.541381837353  0.061511301711  0.610299183100  0  0  0
0.874715307280  0.061511796838  0.276965124177  0  0  0
0.874715199218  0.061511603350  0.943633416653  0  0  0
0.208484976219  0.063259399452  0.498875606358  0  0  0
0.541818310231  0.063260090773  0.165542126880  0  0  0
0.541818271930  0.063259649752  0.832209697126  0  0  0
0.875151498413  0.063259350016  0.498875626115  0  0  0
0.000000000000  0.130439996605  0.000000000000  0  0  0
0.000000000000  0.130439996605  0.666666666668  0  0  0
0.333333333332  0.130439996605  0.333333333332  0  0  0
0.666666666668  0.130439996605  0.000000000000  0  0  0
0.666666666668  0.130439996605  0.666666666668  0  0  0
0.000000000000  0.130439996605  0.555556674713  0  0  0
0.333333333332  0.130439996605  0.222223341380  0  0  0
0.333333333332  0.130439996605  0.888890008047  0  0  0
0.666666666668  0.130439996605  0.555556674713  0  0  0
0.000000000000  0.130439996605  0.111110001801  0  0  0
0.000000000000  0.130439996605  0.777776668467  0  0  0
0.333333333332  0.130439996605  0.444443335133  0  0  0
0.666666666668  0.130439996605  0.111110001801  0  0  0
0.666666666668  0.130439996605  0.777776668467  0  0  0
0.166666666675  0.130439996605  0.333333333332  0  0  0
0.500000000007  0.130439996605  0.000000000000  0  0  0
0.500000000007  0.130439996605  0.666666666668  0  0  0
0.833333333341  0.130439996605  0.333333333332  0  0  0
0.166666666675  0.130439996605  0.222223341380  0  0  0
0.166666666675  0.130439996605  0.888890008047  0  0  0
0.500000000007  0.130439996605  0.555556674713  0  0  0
0.833333333341  0.130439996605  0.222223341380  0  0  0
0.833333333341  0.130439996605  0.888890008047  0  0  0
0.166666666675  0.130439996605  0.444443335133  0  0  0
0.500000000007  0.130439996605  0.111110001801  0  0  0
0.500000000007  0.130439996605  0.777776668467  0  0  0
0.833333333341  0.130439996605  0.444443335133  0  0  0
0.083333333327  0.130439996605  0.000000000000  0  0  0
0.083333333327  0.130439996605  0.666666666668  0  0  0
0.416666666661  0.130439996605  0.333333333332  0  0  0
0.749999999993  0.130439996605  0.000000000000  0  0  0
0.749999999993  0.130439996605  0.666666666668  0  0  0
0.083333333327  0.130439996605  0.555556674713  0  0  0
0.416666666661  0.130439996605  0.222223341380  0  0  0
0.416666666661  0.130439996605  0.888890008047  0  0  0
0.749999999993  0.130439996605  0.555556674713  0  0  0
0.083333333327  0.130439996605  0.111110001801  0  0  0
0.083333333327  0.130439996605  0.777776668467  0  0  0
0.416666666661  0.130439996605  0.444443335133  0  0  0
0.749999999993  0.130439996605  0.111110001801  0  0  0
0.749999999993  0.130439996605  0.777776668467  0  0  0
0.250000000089  0.130439996605  0.333333333332  0  0  0
0.583333333421  0.130439996605  0.000000000000  0  0  0
0.583333333421  0.130439996605  0.666666666668  0  0  0
0.916666666755  0.130439996605  0.333333333332  0  0  0
0.250000000089  0.130439996605  0.222223341380  0  0  0
0.250000000089  0.130439996605  0.888890008047  0  0  0
0.583333333421  0.130439996605  0.555556674713  0  0  0
0.916666666755  0.130439996605  0.222223341380  0  0  0
0.916666666755  0.130439996605  0.888890008047  0  0  0
0.250000000089  0.130439996605  0.444443335133  0  0  0
0.583333333421  0.130439996605  0.111110001801  0  0  0
0.583333333421  0.130439996605  0.777776668467  0  0  0
0.916666666755  0.130439996605  0.444443335133  0  0  0
0.126540558119  0.199210663544  0.056044010974  0  0  0
0.126540340202  0.199211169617  0.722710263138  0  0  0
0.459873825307  0.199210849775  0.389376098974  0  0  0
0.793207090577  0.199210679507  0.056044029232  0  0  0
0.793206874947  0.199211185803  0.722710282230  0  0  0
0.125179694684  0.198993347904  0.610284217440  0  0  0
0.458513020930  0.198992603604  0.276950238682  0  0  0
0.458512989260  0.198992786385  0.943618419404  0  0  0
0.791846241945  0.198993357313  0.610284218336  0  0  0
0.125126730750  0.200169786783  0.163540185972  0  0  0
0.125126671126  0.200170087145  0.830207780330  0  0  0
0.458460110148  0.200170159097  0.496873564444  0  0  0
0.791793243303  0.200169785478  0.163540176540  0  0  0
0.791793185881  0.200170084217  0.830207778075  0  0  0
0.291692081200  0.199901115961  0.387573314877  0  0  0
0.625025218650  0.199900491716  0.054241070560  0  0  0
0.625025238462  0.199901336246  0.720907580874  0  0  0
0.958358613521  0.199901200073  0.387573300656  0  0  0
0.291910257709  0.199708233857  0.276490171819  0  0  0
0.291910443937  0.199708427345  0.943158499341  0  0  0
0.625243445840  0.199708866727  0.609824290919  0  0  0
0.958576805318  0.199708306128  0.276490166977  0  0  0
0.958576994247  0.199708499428  0.943158495530  0  0  0
0.291828170221  0.198633915338  0.498792087512  0  0  0
0.625161189501  0.198632926384  0.165458560569  0  0  0
0.625161334793  0.198633738182  0.832126087369  0  0  0
0.958494723031  0.198634003370  0.498792131395  0  0  0
0.042727331252  0.200037258616  0.054988109042  0  0  0
0.042727344458  0.200038037389  0.721654622397  0  0  0
0.376060879394  0.200037688397  0.388320377423  0  0  0
0.709393813270  0.200037221287  0.054988129322  0  0  0
0.709393836300  0.200038007461  0.721654643413  0  0  0
0.041576694994  0.198837371579  0.610544568812  0  0  0
0.374910113576  0.198836642190  0.277210483743  0  0  0
0.374910056431  0.198836784258  0.943878718414  0  0  0
0.708243188024  0.198837339476  0.610544563645  0  0  0
0.041631813472  0.198293380335  0.165632550693  0  0  0
0.041631760056  0.198294098280  0.832300083380  0  0  0
0.374965267607  0.198294150851  0.498966029574  0  0  0
0.708298308088  0.198293333971  0.165632525838  0  0  0
0.708298264760  0.198294055499  0.832300068620  0  0  0
0.206422607060  0.199761294565  0.388664323863  0  0  0
0.539755729965  0.199760844946  0.055332243569  0  0  0
0.539755894245  0.199761472874  0.721998515309  0  0  0
0.873089146834  0.199761332179  0.388664305837  0  0  0
0.208073002925  0.199345171135  0.276969775294  0  0  0
0.208072898999  0.199345358058  0.943638062783  0  0  0
0.541406087429  0.199345703739  0.610303826122  0  0  0
0.874739557911  0.199345209164  0.276969771485  0  0  0
0.874739453975  0.199345396229  0.943638064102  0  0  0
0.208490609649  0.197609575217  0.498901706297  0  0  0
0.541823942388  0.197608886696  0.165568224798  0  0  0
0.541823910025  0.197609323203  0.832235796647  0  0  0
0.875157131652  0.197609624355  0.498901726100  0  0  0
0.000158151181  0.245228186887  0.009974524109  0  0  0
0.000158175618  0.245229703850  0.676640274983  0  0  0
0.333491580306  0.245228883811  0.343306235038  0  0  0
0.666824661705  0.245228068522  0.009974550609  0  0  0
0.666824688417  0.245229606657  0.676640292349  0  0  0
0.332860859297  0.253755229270  0.556969251140  0  0  0
0.666193890684  0.253754011944  0.223635678213  0  0  0
0.666193985789  0.253754688758  0.890303369955  0  0  0
0.999527444547  0.253755379261  0.556969256265  0  0  0
0.000399886117  0.245442109206  0.119797301765  0  0  0
0.000399917684  0.245443902930  0.786464016706  0  0  0
0.333733366840  0.245444063875  0.453129808032  0  0  0
0.667066405444  0.245441972226  0.119797313861  0  0  0
0.667066443497  0.245443786886  0.786464030095  0  0  0
0.166711337871  0.246039423919  0.343415343748  0  0  0
0.500044586804  0.246038608484  0.010083780936  0  0  0
0.500044575926  0.246039915303  0.676749351196  0  0  0
0.833377906061  0.246039469237  0.343415330582  0  0  0
0.164809274498  0.253277031772  0.223257333934  0  0  0
0.164809207062  0.253277603914  0.889925098005  0  0  0
0.498142472644  0.253277943735  0.556590930719  0  0  0
0.831475836984  0.253277062346  0.223257328540  0  0  0
0.831475770865  0.253277633145  0.889925097518  0  0  0
0.162214089265  0.281389358020  0.437674546318  0  0  0
0.495547414549  0.281389145427  0.104341507880  0  0  0
0.495547306493  0.281388869929  0.771009048404  0  0  0
0.828880586875  0.281389402747  0.437674538338  0  0  0
0.083746141851  0.245931200100  0.009800677396  0  0  0
0.083746083925  0.245932536111  0.676466394765  0  0  0
0.417079573643  0.245931633901  0.343132467723  0  0  0
0.750412682516  0.245931210057  0.009800679730  0  0  0
0.750412627142  0.245932553733  0.676466395929  0  0  0
0.082405227549  0.245468006162  0.562699108430  0  0  0
0.415738589641  0.245466465729  0.229365553297  0  0  0
0.415738550348  0.245467161651  0.896033353072  0  0  0
0.749071761021  0.245467998796  0.562699091544  0  0  0
0.083830918684  0.248115964586  0.122917973001  0  0  0
0.083830620111  0.248117218843  0.789584859160  0  0  0
0.417164196581  0.248117310957  0.456250583611  0  0  0
0.750497454646  0.248115934148  0.122917977874  0  0  0
0.750497159645  0.248117192052  0.789584869139  0  0  0
0.249801010015  0.245705989749  0.342816263710  0  0  0
0.583134211179  0.245705176066  0.009484635873  0  0  0
0.583134251481  0.245706622557  0.676150307917  0  0  0
0.916467569235  0.245706069276  0.342816237947  0  0  0
0.249467100816  0.246197434268  0.230267214258  0  0  0
0.249467126051  0.246198451529  0.896934897403  0  0  0
0.582800235186  0.246198839807  0.563600734917  0  0  0
0.916133662337  0.246197517928  0.230267220530  0  0  0
0.916133691770  0.246198535636  0.896934904082  0  0  0
0.252850533642  0.244794200995  0.453254606107  0  0  0
0.586183624345  0.244792275001  0.119922078164  0  0  0
0.586183821005  0.244793785656  0.786588853487  0  0  0
0.919517087575  0.244794335669  0.453254590685  0  0  0
0.125165844362  0.989835804109  0.032129012586  0  0  0
0.125165767273  0.989835029058  0.698795199353  0  0  0
0.458499150065  0.989835567499  0.365461525840  0  0  0
0.791832449032  0.989835792890  0.032129017448  0  0  0
0.791832373189  0.989835014361  0.698795204688  0  0  0
0.124467501778  0.992352450500  0.584120328170  0  0  0
0.457800791575  0.992353301238  0.250786773538  0  0  0
0.457800787537  0.992352883725  0.917454254852  0  0  0
0.791134108314  0.992352437968  0.584120327251  0  0  0
0.126002018636  0.988272497347  0.142424460299  0  0  0
0.126001939559  0.988271750303  0.809091644096  0  0  0
0.459335366225  0.988271786618  0.475757671992  0  0  0
0.792668614638  0.988272499761  0.142424453589  0  0  0
0.792668537336  0.988271750949  0.809091640855  0  0  0
0.291584171426  0.989366385385  0.364422814831  0  0  0
0.624917412417  0.989366938117  0.031090270025  0  0  0
0.624917419270  0.989366012353  0.697756580719  0  0  0
0.958250779207  0.989366295482  0.364422811404  0  0  0
0.291946890942  0.990679136747  0.250629149258  0  0  0
0.291946970955  0.990678646860  0.917296628725  0  0  0
0.625280165109  0.990678349873  0.583962717111  0  0  0
0.958613505707  0.990679072535  0.250629154702  0  0  0
0.958613587456  0.990678583630  0.917296633513  0  0  0
0.293057864430  0.989198660888  0.476180119672  0  0  0
0.626391087498  0.989199736721  0.142846935469  0  0  0
0.626391148996  0.989198688748  0.809513962823  0  0  0
0.959724478171  0.989198560172  0.476180136309  0  0  0
0.041909491398  0.989439685551  0.031366853593  0  0  0
0.041909485979  0.989438803255  0.698033177410  0  0  0
0.375242885724  0.989439321453  0.364699416465  0  0  0
0.708576077167  0.989439726966  0.031366856619  0  0  0
0.708576074733  0.989438836686  0.698033180064  0  0  0
0.040320168346  0.991949926735  0.584308421671  0  0  0
0.373653557732  0.991950763355  0.250974840011  0  0  0
0.373653546491  0.991950341818  0.917642324830  0  0  0
0.706986756406  0.991949954707  0.584308415324  0  0  0
0.040448821074  0.989559973071  0.143414941371  0  0  0
0.040448777633  0.989558989655  0.810081978557  0  0  0
0.373782228039  0.989559103634  0.476748106737  0  0  0
0.707115409624  0.989560026419  0.143414932386  0  0  0
0.707115370830  0.989559037102  0.810081973175  0  0  0
0.208411633391  0.989383531618  0.364948238195  0  0  0
0.541744836002  0.989384072339  0.031615743619  0  0  0
0.541744908317  0.989383233650  0.698281936902  0  0  0
0.875078242377  0.989383488745  0.364948234082  0  0  0
0.206156182346  0.991308498556  0.250367759017  0  0  0
0.206156106762  0.991308025741  0.917035231035  0  0  0
0.539489351566  0.991307842826  0.583701300401  0  0  0
0.872822791793  0.991308469199  0.250367761392  0  0  0
0.872822716962  0.991307996587  0.917035234879  0  0  0
0.206558313976  0.998282087134  0.468864252664  0  0  0
0.539891646603  0.998282818863  0.135531118213  0  0  0
0.539891680653  0.998282308263  0.802198107383  0  0  0
0.873224909989  0.998282052538  0.468864253317  0  0  0
0.000200304070  0.064525693035  0.082462481514  0  0  0
0.000200321782  0.064525193390  0.749129077964  0  0  0
0.333533711116  0.064525434622  0.415795154876  0  0  0
0.666866879244  0.064525731343  0.082462492908  0  0  0
0.666866902617  0.064525224650  0.749129089408  0  0  0
0.333233133917  0.063505390013  0.638226723522  0  0  0
0.666566292492  0.063505683424  0.304892982455  0  0  0
0.666566342131  0.063505522668  0.971560719358  0  0  0
0.999899749151  0.063505347376  0.638226715591  0  0  0
0.333263965141  0.067350418835  0.193038338418  0  0  0
0.333264008287  0.067349882665  0.859705619748  0  0  0
0.666597198251  0.067349999146  0.526371763903  0  0  0
0.999930580486  0.067350375195  0.193038348544  0  0  0
0.999930627061  0.067349842794  0.859705625541  0  0  0
0.166848536799  0.060784621683  0.418894212056  0  0  0
0.500181812485  0.060784802064  0.085561423204  0  0  0
0.500181807674  0.060784587534  0.752227952638  0  0  0
0.833515130835  0.060784605624  0.418894212746  0  0  0
0.166621559258  0.063167035505  0.305064895629  0  0  0
0.166621507285  0.063166859174  0.971732577775  0  0  0
0.499954818109  0.063166823979  0.638398561476  0  0  0
0.833288169174  0.063167023773  0.305064890765  0  0  0
0.833288116934  0.063166848118  0.971732575929  0  0  0
0.166248031201  0.067101683650  0.525687483578  0  0  0
0.499581356959  0.067101994766  0.192354084655  0  0  0
0.499581307595  0.067101593398  0.859021408016  0  0  0
0.832914630632  0.067101673683  0.525687485461  0  0  0
0.083793187762  0.062202742323  0.084365206800  0  0  0
0.083793114250  0.062202338596  0.751031805067  0  0  0
0.417126566165  0.062202571993  0.417697925397  0  0  0
0.750459773848  0.062202748408  0.084365216550  0  0  0
0.750459704138  0.062202343065  0.751031816030  0  0  0
0.083444845979  0.063293144372  0.638130076162  0  0  0
0.416778207825  0.063293474890  0.304796402287  0  0  0
0.416778189107  0.063293315266  0.971464074750  0  0  0
0.750111437347  0.063293145155  0.638130075152  0  0  0
0.083815219795  0.065453528251  0.192912736054  0  0  0
0.083815225042  0.065453067505  0.859580033644  0  0  0
0.417148636462  0.065453256096  0.526246091698  0  0  0
0.750481808198  0.065453534885  0.192912726890  0  0  0
0.750481816626  0.065453074872  0.859580028978  0  0  0
0.250055277866  0.064566578240  0.415790022592  0  0  0
0.583388525700  0.064566842859  0.082457356447  0  0  0
0.583388589942  0.064566408496  0.749123935321  0  0  0
0.916721875023  0.064566549166  0.415790007880  0  0  0
0.250093100937  0.063240675031  0.304385347364  0  0  0
0.250093124178  0.063240492334  0.971053074481  0  0  0
0.583426333889  0.063240418148  0.637719074022  0  0  0
0.916759706049  0.063240651061  0.304385338743  0  0  0
0.916759729296  0.063240468616  0.971053068310  0  0  0
0.250004330973  0.064510084687  0.526833007878  0  0  0
0.583337623167  0.064510492722  0.193499684834  0  0  0
0.583337617554  0.064509972962  0.860166936920  0  0  0
0.916670935821  0.064510055433  0.526833019401  0  0  0
0.125000000002  0.130439996605  0.027776665995  0  0  0
0.125000000002  0.130439996605  0.694443332661  0  0  0
0.458333333336  0.130439996605  0.361109999329  0  0  0
0.791666666668  0.130439996605  0.027776665995  0  0  0
0.791666666668  0.130439996605  0.694443332661  0  0  0
0.125000000002  0.130439996605  0.583333333283  0  0  0
0.458333333336  0.130439996605  0.249999999951  0  0  0
0.458333333336  0.130439996605  0.916666666615  0  0  0
0.791666666668  0.130439996605  0.583333333283  0  0  0
0.125000000002  0.130439996605  0.138889998190  0  0  0
0.125000000002  0.130439996605  0.805556664856  0  0  0
0.458333333336  0.130439996605  0.472223331524  0  0  0
0.791666666668  0.130439996605  0.138889998190  0  0  0
0.791666666668  0.130439996605  0.805556664856  0  0  0
0.291666666699  0.130439996605  0.361109999329  0  0  0
0.625000000033  0.130439996605  0.027776665995  0  0  0
0.625000000033  0.130439996605  0.694443332661  0  0  0
0.958333333365  0.130439996605  0.361109999329  0  0  0
0.291666666699  0.130439996605  0.249999999951  0  0  0
0.291666666699  0.130439996605  0.916666666615  0  0  0
0.625000000033  0.130439996605  0.583333333283  0  0  0
0.958333333365  0.130439996605  0.249999999951  0  0  0
0.958333333365  0.130439996605  0.916666666615  0  0  0
0.291666666699  0.130439996605  0.472223331524  0  0  0
0.625000000033  0.130439996605  0.138889998190  0  0  0
0.625000000033  0.130439996605  0.805556664856  0  0  0
0.958333333365  0.130439996605  0.472223331524  0  0  0
0.041666666673  0.130439996605  0.027776665995  0  0  0
0.041666666673  0.130439996605  0.694443332661  0  0  0
0.375000000007  0.130439996605  0.361109999329  0  0  0
0.708333333341  0.130439996605  0.027776665995  0  0  0
0.708333333341  0.130439996605  0.694443332661  0  0  0
0.041666666673  0.130439996605  0.583333333283  0  0  0
0.375000000007  0.130439996605  0.249999999951  0  0  0
0.375000000007  0.130439996605  0.916666666615  0  0  0
0.708333333341  0.130439996605  0.583333333283  0  0  0
0.041666666673  0.130439996605  0.138889998190  0  0  0
0.041666666673  0.130439996605  0.805556664856  0  0  0
0.375000000007  0.130439996605  0.472223331524  0  0  0
0.708333333341  0.130439996605  0.138889998190  0  0  0
0.708333333341  0.130439996605  0.805556664856  0  0  0
0.208333333328  0.130439996605  0.361109999329  0  0  0
0.541666666661  0.130439996605  0.027776665995  0  0  0
0.541666666661  0.130439996605  0.694443332661  0  0  0
0.874999999995  0.130439996605  0.361109999329  0  0  0
0.208333333328  0.130439996605  0.249999999951  0  0  0
0.208333333328  0.130439996605  0.916666666615  0  0  0
0.541666666661  0.130439996605  0.583333333283  0  0  0
0.874999999995  0.130439996605  0.249999999951  0  0  0
0.874999999995  0.130439996605  0.916666666615  0  0  0
0.208333333328  0.130439996605  0.472223331524  0  0  0
0.541666666661  0.130439996605  0.138889998190  0  0  0
0.541666666661  0.130439996605  0.805556664856  0  0  0
0.874999999995  0.130439996605  0.472223331524  0  0  0
0.000208937658  0.196381564017  0.082480217077  0  0  0
0.000208954968  0.196382063950  0.749146816242  0  0  0
0.333542344482  0.196381825497  0.415812891874  0  0  0
0.666875512757  0.196381525739  0.082480228425  0  0  0
0.666875535710  0.196382032644  0.749146827636  0  0  0
0.333247717308  0.197379295792  0.638231953569  0  0  0
0.666580875406  0.197379005453  0.304898213762  0  0  0
0.666580924945  0.197379165668  0.971565950030  0  0  0
0.999914332545  0.197379338289  0.638231945580  0  0  0
0.333300327310  0.193657277333  0.193119407790  0  0  0
0.333300369690  0.193657814084  0.859786689551  0  0  0
0.666633559929  0.193657699501  0.526452832246  0  0  0
0.999966942659  0.193657320943  0.193119417992  0  0  0
0.999966988455  0.193657854039  0.859786695441  0  0  0
0.166853310601  0.200055486661  0.418869331516  0  0  0
0.500186585724  0.200055311323  0.085536543556  0  0  0
0.500186581440  0.200055515016  0.752203071476  0  0  0
0.833519904597  0.200055502559  0.418869332216  0  0  0
0.166633650000  0.197705733848  0.305060131212  0  0  0
0.166633598190  0.197705910298  0.971727812789  0  0  0
0.499966908763  0.197705941759  0.638393795046  0  0  0
0.833300259852  0.197705745464  0.305060126310  0  0  0
0.833300207833  0.197705921288  0.971727810930  0  0  0
0.166252716177  0.193811252610  0.525732002661  0  0  0
0.499586041670  0.193810942752  0.192398604514  0  0  0
0.499585993073  0.193811341995  0.859065929161  0  0  0
0.832919315551  0.193811262556  0.525732004558  0  0  0
0.083799570353  0.198666034162  0.084356133180  0  0  0
0.083799495051  0.198666432788  0.751022732501  0  0  0
0.417132948190  0.198666205394  0.417688852264  0  0  0
0.750466156438  0.198666028117  0.084356142996  0  0  0
0.750466084923  0.198666428225  0.751022743506  0  0  0
0.083449393182  0.197575330705  0.638130496485  0  0  0
0.416782755401  0.197575004483  0.304796824510  0  0  0
0.416782736436  0.197575163960  0.971464496129  0  0  0
0.750115984529  0.197575329876  0.638130495372  0  0  0
0.083814223927  0.195558108165  0.193010765655  0  0  0
0.083814227271  0.195558570988  0.859678064418  0  0  0
0.417147639714  0.195558383228  0.526344120590  0  0  0
0.750480812347  0.195558101634  0.193010756509  0  0  0
0.750480818876  0.195558563603  0.859678059779  0  0  0
0.250065593594  0.196317812216  0.415791401882  0  0  0
0.583398840020  0.196317546892  0.082458734559  0  0  0
0.583398906090  0.196317978693  0.749125315678  0  0  0
0.916732190701  0.196317841079  0.415791387176  0  0  0
0.250111060154  0.197644004741  0.304386333574  0  0  0
0.250111083657  0.197644187539  0.971054059899  0  0  0
0.583444292799  0.197644258093  0.637720058653  0  0  0
0.916777665218  0.197644028453  0.304386324974  0  0  0
0.916777688757  0.197644211130  0.971054053746  0  0  0
0.250026365856  0.196396596626  0.526851828066  0  0  0
0.583359656938  0.196396187585  0.193518506713  0  0  0
0.583359652957  0.196396709364  0.860185759535  0  0  0
0.916692970703  0.196396625735  0.526851839578  0  0  0
0.125177553044  0.271073866691  0.032114306298  0  0  0
0.125177474863  0.271074638788  0.698780491035  0  0  0
0.458510858597  0.271074103501  0.365446819305  0  0  0
0.791844157717  0.271073877966  0.032114311201  0  0  0
0.791844080781  0.271074653546  0.698780496358  0  0  0
0.124515982125  0.268626617496  0.584239506325  0  0  0
0.457849271806  0.268625766545  0.250905952460  0  0  0
0.457849267195  0.268626183658  0.917573434655  0  0  0
0.791182588578  0.268626630019  0.584239505357  0  0  0
0.126013799596  0.272541302270  0.142437686037  0  0  0
0.126013715868  0.272542045892  0.809104874608  0  0  0
0.459347145500  0.272542011855  0.475770898208  0  0  0
0.792680395525  0.272541299832  0.142437679353  0  0  0
0.792680313588  0.272542045220  0.809104871443  0  0  0
0.291596996269  0.271511067304  0.364427633030  0  0  0
0.624930236924  0.271510514351  0.031095087186  0  0  0
0.624930244015  0.271511435587  0.697761399094  0  0  0
0.958263603920  0.271511157175  0.364427629633  0  0  0
0.291979347140  0.270220501401  0.250613916611  0  0  0
0.291979427411  0.270220991335  0.917281394017  0  0  0
0.625312621580  0.270221286650  0.583947482032  0  0  0
0.958645961913  0.270220565389  0.250613921999  0  0  0
0.958646043924  0.270221054327  0.917281398764  0  0  0
0.293074385830  0.271689112323  0.476217770380  0  0  0
0.626407607985  0.271688041182  0.142884586688  0  0  0
0.626407670623  0.271689082596  0.809551615828  0  0  0
0.959740999586  0.271689213023  0.476217787144  0  0  0
0.041924270814  0.271446556251  0.031367867451  0  0  0
0.041924264588  0.271447433820  0.698034192472  0  0  0
0.375257664754  0.271446920526  0.364700431411  0  0  0
0.708590856491  0.271446514931  0.031367870495  0  0  0
0.708590853243  0.271447400490  0.698034195122  0  0  0
0.040332287496  0.269138950596  0.584441721237  0  0  0
0.373665676788  0.269138112311  0.251108140533  0  0  0
0.373665664474  0.269138535831  0.917775625404  0  0  0
0.706998875595  0.269138922508  0.584441714811  0  0  0
0.040477309322  0.271322846424  0.143437345105  0  0  0
0.040477263641  0.271323825473  0.810104383927  0  0  0
0.373810715326  0.271323712617  0.476770509792  0  0  0
0.707143897898  0.271322793152  0.143437336149  0  0  0
0.707143856834  0.271323778093  0.810104378573  0  0  0
0.208422990507  0.271502317123  0.364937820814  0  0  0