%BLOCK LATTICE_CART
   2.805735667131327  -0.001056725770899  -0.000000046348158
  -1.403783007248113   2.429310039809362   0.000000001354513
  -0.000000028658056   0.000000000713894   4.623739050685703
%END BLOCK LATTICE_CART
%BLOCK POSITIONS_FRAC
    Al   0.000000000000000   0.000000000000000   0.000000000000000
    Al   0.666666666667000   0.333333333333000   0.500000000000000
%END BLOCK POSITIONS_FRAC
%BLOCK SPECIES_POT
    Al al.lda.recpot                                                                          
%END BLOCK SPECIES_POT
