%BLOCK LATTICE_CART
   2.923981364863169   0.000000008570972   0.000000023094272
   0.000000008570972   2.923981365598288  -0.000000006676599
   0.000000023094272  -0.000000006676599   2.923981365599335
%END BLOCK LATTICE_CART
%BLOCK POSITIONS_FRAC
    Mg   0.000000000000000   0.000000000000000   0.000000000000000
%END BLOCK POSITIONS_FRAC
%BLOCK SPECIES_POT
    Mg mg.lda.recpot                                                                          
%END BLOCK SPECIES_POT
