%BLOCK LATTICE_CART
   2.805799707700000   0.000000000000000   0.000000000000000
   1.402899853850000   2.429893824799152   0.000000000000000
   0.000000000000003   0.000000000000002  46.352690875181743
%END BLOCK LATTICE_CART
%BLOCK POSITIONS_FRAC
    Al   0.000000000000000   0.000000000000000   0.000303664852325
    Al   0.333333333300000   0.333333333300000   0.050029758490958
    Al   0.666666666700000   0.666666666700000   0.099769629122574
    Al   0.000000000000000   0.000000000000000   0.149521254561186
    Al   0.333333333300000   0.333333333300000   0.199460918479384
    Al   0.766666666700000   0.766666666700000   0.250502624504114
    Al   0.100000000000000   0.100000000000000   0.300371322614627
    Al   0.433333333300000   0.433333333300000   0.350075231441507
    Al   0.766666666700000   0.766666666700000   0.399744278734368
    Al   0.100000000000000   0.100000000000000   0.449999455604969
    Al   0.766666666700000   0.766666666700000   0.500254727199886
    Al   0.433333333300000   0.433333333300000   0.549923977838447
    Al   0.100000000000000   0.100000000000000   0.599628076119942
    Al   0.766666666700000   0.766666666700000   0.649496967257930
    Al   0.333333333300000   0.333333333300000   0.700538945772660
    Al   0.000000000000000   0.000000000000000   0.750478939543760
    Al   0.666666666700000   0.666666666700000   0.800230923195150
    Al   0.333333333300000   0.333333333300000   0.849971032539325
    Al   0.000000000000000   0.000000000000000   0.899697190555086
    Al   0.666666666700000   0.666666666700000   0.950000432658943
%END BLOCK POSITIONS_FRAC
%BLOCK SPECIES_POT
    Al al_HC.lda.recpot                                                                       
%END BLOCK SPECIES_POT
%BLOCK ION_OPTIMIZATION
           0           0           1
           0           0           1
           0           0           1
           0           0           1
           0           0           1
           0           0           1
           0           0           1
           0           0           1
           0           0           1
           0           0           1
           0           0           1
           0           0           1
           0           0           1
           0           0           1
           0           0           1
           0           0           1
           0           0           1
           0           0           1
           0           0           1
           0           0           1
%END BLOCK ION_OPTIMIZATION
