%BLOCK LATTICE_CART
   2.812387583300000   0.000000000000000   0.000000000000000
   1.406193791650000   2.435599092425724   0.000000000000000
   0.000000000000003   0.000000000000002  46.108825291046315
%END BLOCK LATTICE_CART
%BLOCK POSITIONS_FRAC
    Al   0.000000000000000   0.000000000000000   0.000047319106701
    Al   0.333333333300000   0.333333333300000   0.049771939921548
    Al   0.666666666700000   0.666666666700000   0.099522544770609
    Al   0.000000000000000   0.000000000000000   0.149304281813502
    Al   0.333333333300000   0.333333333300000   0.198913900311626
    Al   0.866666666700000   0.866666666700000   0.251022703259257
    Al   0.200000000000000   0.200000000000000   0.300604617686853
    Al   0.533333333300000   0.533333333300000   0.350350409211463
    Al   0.866666666700000   0.866666666700000   0.400009495525417
    Al   0.200000000000000   0.200000000000000   0.449999669503127
    Al   0.866666666700000   0.866666666700000   0.499989934067181
    Al   0.533333333300000   0.533333333300000   0.549649169943700
    Al   0.200000000000000   0.200000000000000   0.599395024411671
    Al   0.866666666700000   0.866666666700000   0.648977005064214
    Al   0.333333333300000   0.333333333300000   0.701085993866459
    Al   0.000000000000000   0.000000000000000   0.750695778760653
    Al   0.666666666700000   0.666666666700000   0.800477789379880
    Al   0.333333333300000   0.333333333300000   0.850228581292252
    Al   0.000000000000000   0.000000000000000   0.899953210244939
    Al   0.666666666700000   0.666666666700000   0.950000249770401
%END BLOCK POSITIONS_FRAC
%BLOCK SPECIES_POT
    Al al.lda.recpot                                                                          
%END BLOCK SPECIES_POT
%BLOCK ION_OPTIMIZATION
           0           0           1
           0           0           1
           0           0           1
           0           0           1
           0           0           1
           0           0           1
           0           0           1
           0           0           1
           0           0           1
           0           0           1
           0           0           1
           0           0           1
           0           0           1
           0           0           1
           0           0           1
           0           0           1
           0           0           1
           0           0           1
           0           0           1
           0           0           1
%END BLOCK ION_OPTIMIZATION
