ATOMIC_SPECIES
Al 27 al.lda.lps

LATTICE_CONSTANT
7.50241114482

LATTICE_VECTORS
0.707106781187 0 0 #latvec1
0.353553390593 0.612372435696 0 #latvec2
0 0 11.5470053838 #latvec3

ATOMIC_POSITIONS
Direct

Al #label
0 #magnetism
20 #number of atoms
0 0 7.69847572871e-05 0 0 1 0 0 0
0.333333333332 0.333333333332 0.0499030828425 0 0 1 0 0 0
0.666666666668 0.666666666668 0.100038936386 0 0 1 0 0 0
0 0 0.149984403917 0 0 1 0 0 0
0.333333333332 0.333333333332 0.199533120029 0 0 1 0 0 0
0.799999999999 0.799999999999 0.250470487892 0 0 1 0 0 0
0.133333333333 0.133333333333 0.299971591917 0 0 1 0 0 0
0.466666666667 0.466666666667 0.350064205654 0 0 1 0 0 0
0.799999999999 0.799999999999 0.399914177507 0 0 1 0 0 0
0.133333333333 0.133333333333 0.449998979274 0 0 1 0 0 0
0.799999999999 0.799999999999 0.500084505467 0 0 1 0 0 0
0.466666666667 0.466666666667 0.549935579144 0 0 1 0 0 0
0.133333333333 0.133333333333 0.600026552253 0 0 1 0 0 0
0.799999999999 0.799999999999 0.64952798301 0 0 1 0 0 0
0.333333333332 0.333333333332 0.700467142237 0 0 1 0 0 0
0 0 0.750017214968 0 0 1 0 0 0
0.666666666668 0.666666666668 0.799961294003 0 0 1 0 0 0
0.333333333332 0.333333333332 0.850098443518 0 0 1 0 0 0
0 0 0.899924871245 0 0 1 0 0 0
0.666666666668 0.666666666668 0.950000443977 0 0 1 0 0 0
