%BLOCK LATTICE_CART
  -1.590607785165822   1.590853801989619   1.590853783619287
   1.590853734800320  -1.590607758956045   1.590853757390828
   1.590853730731372   1.590853771692213  -1.590607754883118
%END BLOCK LATTICE_CART
%BLOCK POSITIONS_FRAC
    Al   0.000000000000000   0.000000000000000   0.000000000000000
%END BLOCK POSITIONS_FRAC
%BLOCK SPECIES_POT
    Al al.lda.recpot                                                                          
%END BLOCK SPECIES_POT
