%BLOCK LATTICE_CART
   2.688300935620076  -0.000055713727551  -0.000095749857692
  -0.000055713714299   2.688301899228906  -0.000017812904874
  -0.000095749833833  -0.000017812904242   2.688301899895862
%END BLOCK LATTICE_CART
%BLOCK POSITIONS_FRAC
    Li   0.000000000000000   0.000000000000000   0.000000000000000
%END BLOCK POSITIONS_FRAC
%BLOCK SPECIES_POT
    Li li.lda.recpot                                                                          
%END BLOCK SPECIES_POT
