ATOMIC_SPECIES
B 10.81 /home/saber/work/tools/pp/SG15_ONCV_v1.0_upf/B_ONCV_PBE-1.0.upf 
N 14.00 /home/saber/work/tools/pp/SG15_ONCV_v1.0_upf/N_ONCV_PBE-1.0.upf

LATTICE_CONSTANT
1.8897259886

LATTICE_VECTORS
2.512428 0.000000 0.000000
-1.256214 2.175827 0.000000
0.000000 0.000000 7.707265

NUMERICAL_ORBITAL
/home/saber/work/03a01_scan+lcao_test/orb/Orb_TZDP_E100_Full/B/B_gga_10au_100Ry_3s3p2d.orb
/home/saber/work/03a01_scan+lcao_test/orb/Orb_TZDP_E100_Full/N/N_gga_10au_100Ry_3s3p2d.orb

ATOMIC_POSITIONS
Direct    # Cartesian(Unit is LATTICE_CONSTANT)
B
0.0
2
0.666667 0.333333 0.750000 
0.333333 0.666667 0.250000 
N
0.666667 0.333333 0.250000 
0.333333 0.666667 0.750000 
