%BLOCK LATTICE_CART
   2.833725690800000   0.000000000000000   0.000000000000000
   1.416862845400000   2.454078435589407   0.000000000000000
   0.000000000000003   0.000000000000002  46.296729698121638
%END BLOCK LATTICE_CART
%BLOCK POSITIONS_FRAC
    Al   0.000000000000000   0.000000000000000   0.999954196282088
    Al   0.333333333300000   0.333333333300000   0.049943790709424
    Al   0.666666666700000   0.666666666700000   0.099928574226207
    Al   0.000000000000000   0.000000000000000   0.149921436033853
    Al   0.333333333300000   0.333333333300000   0.199915417536641
    Al   0.700000000000000   0.700000000000000   0.250093995623311
    Al   0.033333333300000   0.033333333300000   0.300090160060923
    Al   0.366666666700000   0.366666666700000   0.350080345397637
    Al   0.700000000000000   0.700000000000000   0.400065203467192
    Al   0.033333333300000   0.033333333300000   0.449999955788661
    Al   0.700000000000000   0.700000000000000   0.499934796836420
    Al   0.366666666700000   0.366666666700000   0.549919781228446
    Al   0.033333333300000   0.033333333300000   0.599909946913927
    Al   0.700000000000000   0.700000000000000   0.649905960198157
    Al   0.333333333300000   0.333333333300000   0.700084452138313
    Al   1.000000000000000   1.000000000000000   0.750078516473956
    Al   0.666666666700000   0.666666666700000   0.800071523465790
    Al   0.333333333300000   0.333333333300000   0.850056318877372
    Al   0.000000000000000   0.000000000000000   0.900045780064072
    Al   0.666666666700000   0.666666666700000   0.949999943303181
%END BLOCK POSITIONS_FRAC
%BLOCK SPECIES_POT
    Al al.lda.recpot                                                                          
%END BLOCK SPECIES_POT
%BLOCK ION_OPTIMIZATION
           0           0           1
           0           0           1
           0           0           1
           0           0           1
           0           0           1
           0           0           1
           0           0           1
           0           0           1
           0           0           1
           0           0           1
           0           0           1
           0           0           1
           0           0           1
           0           0           1
           0           0           1
           0           0           1
           0           0           1
           0           0           1
           0           0           1
           0           0           1
%END BLOCK ION_OPTIMIZATION
