%BLOCK LATTICE_CART
   2.806843720900000   0.000000000000000   0.000000000000000
   1.403421860450000   2.430797966752238   0.000000000000000
   0.000000000000003   0.000000000000002  50.603892775505322
%END BLOCK LATTICE_CART
%BLOCK POSITIONS_FRAC
    Al   0.000000000000000   0.000000000000000   0.000256573962863
    Al   0.333333333300000   0.333333333300000   0.045378749348785
    Al   0.666666666700000   0.666666666700000   0.090596917188433
    Al   0.000000000000000   0.000000000000000   0.135726522302255
    Al   0.333333333300000   0.333333333300000   0.181378229892358
    Al   0.000000000000000   0.000000000000000   0.227544438065524
    Al   0.366666666700000   0.366666666700000   0.273412801953237
    Al   0.700000000000000   0.700000000000000   0.318529373320784
    Al   0.033333333300000   0.033333333300000   0.363759171373059
    Al   0.366666666700000   0.366666666700000   0.408859051259666
    Al   0.700000000000000   0.700000000000000   0.454542943944732
    Al   0.366666666700000   0.366666666700000   0.500227121519938
    Al   0.033333333300000   0.033333333300000   0.545327662485952
    Al   0.700000000000000   0.700000000000000   0.590558481949711
    Al   0.366666666700000   0.366666666700000   0.635676275843287
    Al   0.000000000000000   0.000000000000000   0.681545929849417
    Al   0.333333333300000   0.333333333300000   0.727713432501751
    Al   0.000000000000000   0.000000000000000   0.773366379756828
    Al   0.666666666700000   0.666666666700000   0.818497114075933
    Al   0.333333333300000   0.333333333300000   0.863716151145798
    Al   0.000000000000000   0.000000000000000   0.908838878049240
    Al   0.666666666700000   0.666666666700000   0.954547843372462
%END BLOCK POSITIONS_FRAC
%BLOCK SPECIES_POT
    Al al.lda.recpot                                                                          
%END BLOCK SPECIES_POT
%BLOCK ION_OPTIMIZATION
           0           0           1
           0           0           1
           0           0           1
           0           0           1
           0           0           1
           0           0           1
           0           0           1
           0           0           1
           0           0           1
           0           0           1
           0           0           1
           0           0           1
           0           0           1
           0           0           1
           0           0           1
           0           0           1
           0           0           1
           0           0           1
           0           0           1
           0           0           1
           0           0           1
           0           0           1
%END BLOCK ION_OPTIMIZATION
