%BLOCK LATTICE_CART
3.169855560000    0.000000000000    0.000000000000    
0.000000000000    5.049861860000    0.000000000000    
0.000000000000    0.000000000000    5.409728980000    
%END BLOCK LATTICE_CART
%BLOCK POSITIONS_FRAC
Li    0.500000000000    0.000000000000    0.167794690000
Mg    0.000000000000    0.000000000000    0.668359750000
Mg    0.000000000000    0.500000000000    0.329603760000
Mg    0.500000000000    0.500000000000    0.834240810000
%END BLOCK POSITIONS_FRAC
%BLOCK SPECIES_POT
Li li.gga.recpot
Mg mg.gga.recpot
%END BLOCK SPECIES_POT
