ATOMIC_SPECIES
Al 26.981 al.gga.psp blps
As 74.922 as.gga.psp blps

LATTICE_CONSTANT
1.9275205083505018  // add lattice constant

LATTICE_VECTORS
2.001197025991    -3.466174924972    0.000000000000    
2.001197025991    3.466174924972    0.000000000000    
0.000000000000    0.000000000000    6.577805000000    

ATOMIC_POSITIONS
Direct

Al
0.0
2
    0.333333333333    0.666666666667    0.000683000000 1 1 1
    0.666666666667    0.333333333333    0.500683000000 1 1 1
As
0.0
2
    0.333333333333    0.666666666667    0.375317000000 1 1 1
    0.666666666667    0.333333333333    0.875317000000 1 1 1
