%BLOCK LATTICE_CART
   2.795892686570975  -0.000122691318193  -0.000000275906222
  -1.398052640705189   2.421252822510173   0.000000032144755
  -0.000000176607023   0.000000016882329   4.659944771360303
%END BLOCK LATTICE_CART
%BLOCK POSITIONS_FRAC
    Al   0.000000000000000   0.000000000000000   0.000000000000000
    Al   0.666666666667000   0.333333333333000   0.500000000000000
%END BLOCK POSITIONS_FRAC
%BLOCK SPECIES_POT
    Al al.lda.recpot                                                                          
%END BLOCK SPECIES_POT
