%BLOCK LATTICE_CART
3.150764679679    0.000000000000    0.000000000000    
-1.575382339840    2.728642253949    0.000000000000    
0.000000000000    0.000000000000    5.131997014514    
%END BLOCK LATTICE_CART
%BLOCK POSITIONS_FRAC
Mg    0.000000000000    0.000000000000    0.000000000000
Mg    0.666666666667    0.333333333333    0.500000000000
%END BLOCK POSITIONS_FRAC
%BLOCK SPECIES_POT
Mg mg.lda.recpot
%END BLOCK SPECIES_POT
