%BLOCK LATTICE_CART
   2.690942091557500  -0.000056786512163  -0.000097584567784
  -0.000056786498783   2.690943061566047  -0.000018148303440
  -0.000097584543452  -0.000018148302700   2.690943062311950
%END BLOCK LATTICE_CART
%BLOCK POSITIONS_FRAC
    Li   0.000000000000000   0.000000000000000   0.000000000000000
%END BLOCK POSITIONS_FRAC
%BLOCK SPECIES_POT
    Li li.lda.recpot                                                                          
%END BLOCK SPECIES_POT
