ATOMIC_SPECIES
Li 6.941 li.gga.psp.1 blps
Mg 24.305 mg.gga.psp blps
Al 26.981 al.gga.psp blps

LATTICE_CONSTANT
1.8897259885789233  // add lattice constant

LATTICE_VECTORS
3.149378589525    -5.454883729327    0.000000000000    
3.149378589525    5.454883729327    0.000000000000    
0.000000000000    0.000000000000    10.365964520000    

ATOMIC_POSITIONS
Direct

Li
0.0
1
    0.000000000000    0.000000000000    0.500000000000 1 1 1
Mg
0.0
14
    0.999308570000    0.499654285000    0.000000000000 1 1 1
    0.000885670000    0.500442835000    0.500000000000 1 1 1
    0.500345715000    0.000691430000    0.000000000000 1 1 1
    0.499557165000    0.999114330000    0.500000000000 1 1 1
    0.500345715000    0.499654285000    0.000000000000 1 1 1
    0.499557165000    0.500442835000    0.500000000000 1 1 1
    0.165386310000    0.834613690000    0.249173790000 1 1 1
    0.165386310000    0.834613690000    0.750826210000 1 1 1
    0.165386310000    0.330772620000    0.249173790000 1 1 1
    0.165386310000    0.330772620000    0.750826210000 1 1 1
    0.669227380000    0.834613690000    0.249173790000 1 1 1
    0.669227380000    0.834613690000    0.750826210000 1 1 1
    0.666666666667    0.333333333333    0.250610520000 1 1 1
    0.666666666667    0.333333333333    0.749389480000 1 1 1
Al
0.0
1
    0.000000000000    0.000000000000    0.000000000000 1 1 1
