%BLOCK LATTICE_CART
   2.798455676662359  -0.004579179924987  -0.000000035290816
  -1.403193541807733   2.421244147352560  -0.000000001905868
  -0.000000020902341  -0.000000000982520   4.613993623085288
%END BLOCK LATTICE_CART
%BLOCK POSITIONS_FRAC
    Al   0.000000000000000   0.000000000000000   0.000000000000000
    Al   0.666666666667000   0.333333333333000   0.500000000000000
%END BLOCK POSITIONS_FRAC
%BLOCK SPECIES_POT
    Al al.lda.recpot                                                                          
%END BLOCK SPECIES_POT
