ATOMIC_SPECIES
Al 26.981539 al.lda.lps

LATTICE_CONSTANT
7.50241114482312  // add lattice constant

LATTICE_VECTORS
0.707106781187    0.000000000000    0.000000000000    
0.353553390593    0.612372435696    0.000000000000    
0.000000000000    0.000000000000    11.547005383792515

ATOMIC_POSITIONS
Direct

Al
0.0
20
    6.5255798331E-31  6.5255798331E-31  1.6477457024E-04 1 1 1
    3.3333333330E-01  3.3333333330E-01  4.9990054489E-02 1 1 1
    6.6666666670E-01  6.6666666670E-01  1.0005230169E-01 1 1 1
    6.1171996831E-31  6.0453158811E-31  1.4984220293E-01 1 1 1
    3.3333333330E-01  3.3333333330E-01  1.9986397276E-01 1 1 1
    9.6666666670E-01  9.6666666670E-01  2.5022171110E-01 1 1 1
    3.0000000000E-01  3.0000000000E-01  3.0014679907E-01 1 1 1
    6.3333333330E-01  6.3333333330E-01  3.4997465953E-01 1 1 1
    9.6666666670E-01  9.6666666670E-01  3.9982676198E-01 1 1 1
    3.0000000000E-01  3.0000000000E-01  4.5000000000E-01 1 1 1
    9.6666666670E-01  9.6666666670E-01  5.0017323802E-01 1 1 1
    6.3333333330E-01  6.3333333330E-01  5.5002534047E-01 1 1 1
    3.0000000000E-01  3.0000000000E-01  5.9985320093E-01 1 1 1
    9.6666666670E-01  9.6666666670E-01  6.4977828890E-01 1 1 1
    3.3333333330E-01  3.3333333330E-01  7.0013602724E-01 1 1 1
    6.0392091612E-31  5.7516739531E-31  7.5015779707E-01 1 1 1
    6.6666666670E-01  6.6666666670E-01  7.9994769831E-01 1 1 1
    3.3333333330E-01  3.3333333330E-01  8.5000994551E-01 1 1 1
    6.7377231330E-31  6.7377231330E-31  8.9983522543E-01 1 1 1
    6.6666666670E-01  6.6666666670E-01  9.5000000000E-01 1 1 1
