%BLOCK LATTICE_CART
-2.2327136807177297 2.2327136807177297 1.218035012081317
2.2327136807177297 -2.2327136807177297 1.218035012081317
2.2327136807177297 2.2327136807177297 -1.218035012081317
%END BLOCK LATTICE_CART
%BLOCK POSITIONS_FRAC
Si 0 0 0
Si 0.75 0.25 0.5
%END BLOCK POSITIONS_FRAC
%BLOCK SPECIES_POT
Si si.lda.recpot
%END BLOCK SPECIES_POT
