ATOMIC_SPECIES
Li 6.941 li.gga.psp.1 blps
Al 26.981 al.gga.psp blps

LATTICE_CONSTANT
1.8897259885789233  // add lattice constant

LATTICE_VECTORS
12.284346000000    0.000000000000    0.000000000000    
0.000000000000    12.792132000000    0.000000000000    
0.000000000000    0.000000000000    5.900775000000    

ATOMIC_POSITIONS
Direct

Li
0.0
24
    0.263516000000    0.250000000000    0.750000000000 1 1 1
    0.736484000000    0.250000000000    0.250000000000 1 1 1
    0.736484000000    0.750000000000    0.250000000000 1 1 1
    0.263516000000    0.750000000000    0.750000000000 1 1 1
    0.500000000000    0.805776000000    0.500000000000 1 1 1
    0.500000000000    0.305776000000    0.000000000000 1 1 1
    0.500000000000    0.194224000000    0.500000000000 1 1 1
    0.500000000000    0.694224000000    0.000000000000 1 1 1
    0.289332000000    0.000000000000    0.390564000000 1 1 1
    0.710668000000    0.000000000000    0.609436000000 1 1 1
    0.210668000000    0.000000000000    0.890564000000 1 1 1
    0.789332000000    0.000000000000    0.109436000000 1 1 1
    0.763516000000    0.750000000000    0.750000000000 1 1 1
    0.236484000000    0.750000000000    0.250000000000 1 1 1
    0.236484000000    0.250000000000    0.250000000000 1 1 1
    0.763516000000    0.250000000000    0.750000000000 1 1 1
    0.000000000000    0.305776000000    0.500000000000 1 1 1
    0.000000000000    0.805776000000    0.000000000000 1 1 1
    0.000000000000    0.694224000000    0.500000000000 1 1 1
    0.000000000000    0.194224000000    0.000000000000 1 1 1
    0.789332000000    0.500000000000    0.390564000000 1 1 1
    0.210668000000    0.500000000000    0.609436000000 1 1 1
    0.710668000000    0.500000000000    0.890564000000 1 1 1
    0.289332000000    0.500000000000    0.109436000000 1 1 1
Al
0.0
24
    0.611045500000    0.614181500000    0.537456000000 1 1 1
    0.388954500000    0.614181500000    0.462544000000 1 1 1
    0.388954500000    0.114181500000    0.037456000000 1 1 1
    0.611045500000    0.114181500000    0.962544000000 1 1 1
    0.388954500000    0.385818500000    0.462544000000 1 1 1
    0.611045500000    0.385818500000    0.537456000000 1 1 1
    0.611045500000    0.885818500000    0.962544000000 1 1 1
    0.388954500000    0.885818500000    0.037456000000 1 1 1
    0.972505000000    0.000000000000    0.791472000000 1 1 1
    0.027495000000    0.000000000000    0.208528000000 1 1 1
    0.527495000000    0.000000000000    0.291472000000 1 1 1
    0.472505000000    0.000000000000    0.708528000000 1 1 1
    0.111045500000    0.114181500000    0.537456000000 1 1 1
    0.888954500000    0.114181500000    0.462544000000 1 1 1
    0.888954500000    0.614181500000    0.037456000000 1 1 1
    0.111045500000    0.614181500000    0.962544000000 1 1 1
    0.888954500000    0.885818500000    0.462544000000 1 1 1
    0.111045500000    0.885818500000    0.537456000000 1 1 1
    0.111045500000    0.385818500000    0.962544000000 1 1 1
    0.888954500000    0.385818500000    0.037456000000 1 1 1
    0.472505000000    0.500000000000    0.791472000000 1 1 1
    0.527495000000    0.500000000000    0.208528000000 1 1 1
    0.027495000000    0.500000000000    0.291472000000 1 1 1
    0.972505000000    0.500000000000    0.708528000000 1 1 1
