%BLOCK LATTICE_CART
   2.805799707700000   0.000000000000000   0.000000000000000
   1.402899853850000   2.429893824799152   0.000000000000000
   0.000000000000003   0.000000000000002  46.724160290194099
%END BLOCK LATTICE_CART
%BLOCK POSITIONS_FRAC
    Al   0.000000000000000   0.000000000000000   0.999968297643175
    Al   0.333333333300000   0.333333333300000   0.049907400939901
    Al   0.666666666700000   0.666666666700000   0.099840145747368
    Al   0.000000000000000   0.000000000000000   0.149766599544204
    Al   0.333333333300000   0.333333333300000   0.199731860445448
    Al   0.933333333300000   0.933333333300000   0.250262198898268
    Al   0.266666666700000   0.266666666700000   0.300228285724577
    Al   0.600000000000000   0.600000000000000   0.350146508878717
    Al   0.933333333300000   0.933333333300000   0.400060772151919
    Al   0.266666666700000   0.266666666700000   0.450000098244447
    Al   0.933333333300000   0.933333333300000   0.499939468308547
    Al   0.600000000000000   0.600000000000000   0.549853776728919
    Al   0.266666666700000   0.266666666700000   0.599771920477012
    Al   0.933333333300000   0.933333333300000   0.649737844279245
    Al   0.333333333300000   0.333333333300000   0.700268073936308
    Al   1.000000000000000   1.000000000000000   0.750233302422281
    Al   0.666666666700000   0.666666666700000   0.800159789658137
    Al   0.333333333300000   0.333333333300000   0.850092502402556
    Al   0.000000000000000   0.000000000000000   0.900031491692759
    Al   0.666666666700000   0.666666666700000   0.949999861240554
%END BLOCK POSITIONS_FRAC
%BLOCK SPECIES_POT
    Al al.lda.recpot                                                                          
%END BLOCK SPECIES_POT
%BLOCK ION_OPTIMIZATION
           0           0           1
           0           0           1
           0           0           1
           0           0           1
           0           0           1
           0           0           1
           0           0           1
           0           0           1
           0           0           1
           0           0           1
           0           0           1
           0           0           1
           0           0           1
           0           0           1
           0           0           1
           0           0           1
           0           0           1
           0           0           1
           0           0           1
           0           0           1
%END BLOCK ION_OPTIMIZATION
