%BLOCK LATTICE_CART
3.149378589525    -5.454883729327    0.000000000000    
3.149378589525    5.454883729327    0.000000000000    
0.000000000000    0.000000000000    10.365964520000    
%END BLOCK LATTICE_CART
%BLOCK POSITIONS_FRAC
Li    0.000000000000    0.000000000000    0.500000000000
Mg    0.999308570000    0.499654285000    0.000000000000
Mg    0.000885670000    0.500442835000    0.500000000000
Mg    0.500345715000    0.000691430000    0.000000000000
Mg    0.499557165000    0.999114330000    0.500000000000
Mg    0.500345715000    0.499654285000    0.000000000000
Mg    0.499557165000    0.500442835000    0.500000000000
Mg    0.165386310000    0.834613690000    0.249173790000
Mg    0.165386310000    0.834613690000    0.750826210000
Mg    0.165386310000    0.330772620000    0.249173790000
Mg    0.165386310000    0.330772620000    0.750826210000
Mg    0.669227380000    0.834613690000    0.249173790000
Mg    0.669227380000    0.834613690000    0.750826210000
Mg    0.666666666667    0.333333333333    0.250610520000
Mg    0.666666666667    0.333333333333    0.749389480000
Al    0.000000000000    0.000000000000    0.000000000000
%END BLOCK POSITIONS_FRAC
%BLOCK SPECIES_POT
Li li.gga.recpot
Mg mg.gga.recpot
Al al.gga.recpot
%END BLOCK SPECIES_POT
