ATOMIC_SPECIES
Al 13 al.lda.lps

LATTICE_CONSTANT
7.50241114482

LATTICE_VECTORS
0.707106781187 0 0 #latvec1
0.353553390593 0.612372435696 0 #latvec2
0 0 11.5470053838 #latvec3

ATOMIC_POSITIONS
Direct

Al #label
0 #magnetism
20 #number of atoms
0 0 0.000206572568355 0 0 1
0.333333333332 0.333333333332 0.0496607574614 0 0 1
0.666666666668 0.666666666668 0.0993330039591 0 0 1
0 0 0.149472044343 0 0 1
0.333333333332 0.333333333332 0.198665250345 0 0 1
0.933333333332 0.933333333332 0.249247736094 0 0 1
0.266666666666 0.266666666666 0.297960752907 0 0 1
0.6 0.6 0.348806635054 0 0 1
0.933333333332 0.933333333332 0.3975565357 0 0 1
0.266666666666 0.266666666666 0.44867556774 0 0 1
0.933333333332 0.933333333332 0.50029494021 0 0 1
0.6 0.6 0.552200104238 0 0 1
0.266666666666 0.266666666666 0.601890717593 0 0 1
0.933333333332 0.933333333332 0.651331275066 0 0 1
0.333333333332 0.333333333332 0.701778748432 0 0 1
0 0 0.750572189822 0 0 1
0.666666666668 0.666666666668 0.801437115543 0 0 1
0.333333333332 0.333333333332 0.850148833906 0 0 1
0 0 0.900943062228 0 0 1
0.666666666668 0.666666666668 0.94981815679 0 0 1
