ATOMIC_SPECIES
Si 14 si.lda.lps blps

LATTICE_CONSTANT
10.16763978641871  // add lattice constant

LATTICE_VECTORS
0.500000000000    0.500000000000    0.000000000000    
-0.500000000000    0.500000000000    0.000000000000    
0.000000000000    0.000000000000    4.250000000000    

ATOMIC_POSITIONS
Direct

Si
0.0
10
    0.000000000000    0.000000000000 0.0    1 1 1
    0.500000000000    0.000000000000 0.058823529411764705    1 1 1
    0.5 0.5 0.11764705882352941 1 1 1
    0.0 0.5 0.17647058823529413 1 1 1
    0.0 0.0 0.23529411764705882 1 1 1
    0.5 0.0 0.29411764705882354 1 1 1
    0.5 0.5 0.35294117647058826 1 1 1
    0.0 0.5 0.4117647058823529 1 1 1
    0.0 0.0 0.47058823529411764 1 1 1
    0.5 0.0 0.5294117647058824 1 1 1