ATOMIC_SPECIES
Si 14 si.lda.lps blps

LATTICE_CONSTANT
10.220303457786414  // add lattice constant

LATTICE_VECTORS
2.000000000000    0.000000000000    0.000000000000    
0.000000000000    2.000000000000    0.000000000000    
0.000000000000    0.000000000000    2.000000000000    

ATOMIC_POSITIONS
Direct

Si
0.0
63
0.250000000000 0.250000000000 0.000000000000 1 1 1
0.250000000000 0.000000000000 0.250000000000 1 1 1
0.000000000000 0.250000000000 0.250000000000 1 1 1
0.125000000000 0.125000000000 0.125000000000 1 1 1
0.375000000000 0.375000000000 0.125000000000 1 1 1
0.375000000000 0.125000000000 0.375000000000 1 1 1
0.125000000000 0.375000000000 0.375000000000 1 1 1
0.000000000000 0.000000000000 0.500000000000 1 1 1
0.250000000000 0.250000000000 0.500000000000 1 1 1
0.250000000000 0.000000000000 0.750000000000 1 1 1
0.000000000000 0.250000000000 0.750000000000 1 1 1
0.125000000000 0.125000000000 0.625000000000 1 1 1
0.375000000000 0.375000000000 0.625000000000 1 1 1
0.375000000000 0.125000000000 0.875000000000 1 1 1
0.125000000000 0.375000000000 0.875000000000 1 1 1
0.000000000000 0.500000000000 0.000000000000 1 1 1
0.250000000000 0.750000000000 0.000000000000 1 1 1
0.250000000000 0.500000000000 0.250000000000 1 1 1
0.000000000000 0.750000000000 0.250000000000 1 1 1
0.125000000000 0.625000000000 0.125000000000 1 1 1
0.375000000000 0.875000000000 0.125000000000 1 1 1
0.375000000000 0.625000000000 0.375000000000 1 1 1
0.125000000000 0.875000000000 0.375000000000 1 1 1
0.000000000000 0.500000000000 0.500000000000 1 1 1
0.250000000000 0.750000000000 0.500000000000 1 1 1
0.250000000000 0.500000000000 0.750000000000 1 1 1
0.000000000000 0.750000000000 0.750000000000 1 1 1
0.125000000000 0.625000000000 0.625000000000 1 1 1
0.375000000000 0.875000000000 0.625000000000 1 1 1
0.375000000000 0.625000000000 0.875000000000 1 1 1
0.125000000000 0.875000000000 0.875000000000 1 1 1
0.500000000000 0.000000000000 0.000000000000 1 1 1
0.750000000000 0.250000000000 0.000000000000 1 1 1
0.750000000000 0.000000000000 0.250000000000 1 1 1
0.500000000000 0.250000000000 0.250000000000 1 1 1
0.625000000000 0.125000000000 0.125000000000 1 1 1
0.875000000000 0.375000000000 0.125000000000 1 1 1
0.875000000000 0.125000000000 0.375000000000 1 1 1
0.625000000000 0.375000000000 0.375000000000 1 1 1
0.500000000000 0.000000000000 0.500000000000 1 1 1
0.750000000000 0.250000000000 0.500000000000 1 1 1
0.750000000000 0.000000000000 0.750000000000 1 1 1
0.500000000000 0.250000000000 0.750000000000 1 1 1
0.625000000000 0.125000000000 0.625000000000 1 1 1
0.875000000000 0.375000000000 0.625000000000 1 1 1
0.875000000000 0.125000000000 0.875000000000 1 1 1
0.625000000000 0.375000000000 0.875000000000 1 1 1
0.500000000000 0.500000000000 0.000000000000 1 1 1
0.750000000000 0.750000000000 0.000000000000 1 1 1
0.750000000000 0.500000000000 0.250000000000 1 1 1
0.500000000000 0.750000000000 0.250000000000 1 1 1
0.625000000000 0.625000000000 0.125000000000 1 1 1
0.875000000000 0.875000000000 0.125000000000 1 1 1
0.875000000000 0.625000000000 0.375000000000 1 1 1
0.625000000000 0.875000000000 0.375000000000 1 1 1
0.500000000000 0.500000000000 0.500000000000 1 1 1
0.750000000000 0.750000000000 0.500000000000 1 1 1
0.750000000000 0.500000000000 0.750000000000 1 1 1
0.500000000000 0.750000000000 0.750000000000 1 1 1
0.625000000000 0.625000000000 0.625000000000 1 1 1
0.875000000000 0.875000000000 0.625000000000 1 1 1
0.875000000000 0.625000000000 0.875000000000 1 1 1
0.625000000000 0.875000000000 0.875000000000 1 1 1
