%BLOCK LATTICE_CART
2.811060495608    0.000000000000    0.000000000000    
-1.405530247804    2.434449800771    0.000000000000    
0.000000000000    0.000000000000    4.709955905413    
%END BLOCK LATTICE_CART
%BLOCK POSITIONS_FRAC
Al    0.000000000000    0.000000000000    0.000000000000
Al    0.666666666667    0.333333333333    0.500000000000
%END BLOCK POSITIONS_FRAC
%BLOCK SPECIES_POT
Al al.lda.recpot
%END BLOCK SPECIES_POT
