%BLOCK LATTICE_CART
  -1.594727676394546   1.594989125176445   1.594989067538116
   1.594988965522445  -1.594727656891841   1.594989047782795
   1.594988952051791   1.594989091950471  -1.594727643360943
%END BLOCK LATTICE_CART
%BLOCK POSITIONS_FRAC
    Al   0.000000000000000   0.000000000000000   0.000000000000000
%END BLOCK POSITIONS_FRAC
%BLOCK SPECIES_POT
    Al al.lda.recpot                                                                          
%END BLOCK SPECIES_POT
