ATOMIC_SPECIES
Li 6.941 li.gga.psp.1 blps
Mg 24.305 mg.gga.psp blps

LATTICE_CONSTANT
1.8897259885789233  // add lattice constant

LATTICE_VECTORS
4.411069000000    0.000000000000    0.000000000000    
0.000000000000    4.411069000000    0.000000000000    
0.000000000000    0.000000000000    4.411069000000    

ATOMIC_POSITIONS
Direct

Li
0.0
1
    0.000000000000    0.000000000000    0.000000000000 1 1 1
Mg
0.0
3
    0.500000000000    0.500000000000    0.000000000000 1 1 1
    0.500000000000    0.000000000000    0.500000000000 1 1 1
    0.000000000000    0.500000000000    0.500000000000 1 1 1
