%BLOCK LATTICE_CART
   2.805799707700000   0.000000000000000   0.000000000000000
   1.402899853850000   2.429893824799152   0.000000000000000
   0.000000000000003   0.000000000000002  46.667760223732280
%END BLOCK LATTICE_CART
%BLOCK POSITIONS_FRAC
    Al   1.000000000000000   1.000000000000000   0.000018554409320
    Al   0.333333333300000   0.333333333300000   0.050011753946163
    Al   0.666666666700000   0.666666666700000   0.099984507328867
    Al   0.000000000000000   0.000000000000000   0.149957122479663
    Al   0.333333333300000   0.333333333300000   0.199928512494405
    Al   0.700000000000000   0.700000000000000   0.250071623861606
    Al   0.033333333300000   0.033333333300000   0.300039385644041
    Al   0.366666666700000   0.366666666700000   0.350007903148115
    Al   0.700000000000000   0.700000000000000   0.399980227811409
    Al   0.033333333300000   0.033333333300000   0.449999973217950
    Al   0.700000000000000   0.700000000000000   0.500019764782202
    Al   0.366666666700000   0.366666666700000   0.549992154033139
    Al   0.033333333300000   0.033333333300000   0.599960665195791
    Al   0.700000000000000   0.700000000000000   0.649928355766176
    Al   0.333333333300000   0.333333333300000   0.700071426928233
    Al   0.000000000000000   0.000000000000000   0.750042858660918
    Al   0.666666666700000   0.666666666700000   0.800015545873307
    Al   0.333333333300000   0.333333333300000   0.849988303370501
    Al   0.000000000000000   0.000000000000000   0.899981438363295
    Al   0.666666666700000   0.666666666700000   0.949999973254088
%END BLOCK POSITIONS_FRAC
%BLOCK SPECIES_POT
    Al al.lda.recpot                                                                          
%END BLOCK SPECIES_POT
%BLOCK ION_OPTIMIZATION
           0           0           1
           0           0           1
           0           0           1
           0           0           1
           0           0           1
           0           0           1
           0           0           1
           0           0           1
           0           0           1
           0           0           1
           0           0           1
           0           0           1
           0           0           1
           0           0           1
           0           0           1
           0           0           1
           0           0           1
           0           0           1
           0           0           1
           0           0           1
%END BLOCK ION_OPTIMIZATION
