%BLOCK LATTICE_CART
3.096177320000    0.000000000000    0.000000000000    
0.000000000000    5.268643600000    0.000000000000    
0.000000000000    0.000000000000    9.980439240000    
%END BLOCK LATTICE_CART
%BLOCK POSITIONS_FRAC
Li    0.500000000000    0.165836530000    0.000000000000
Li    0.500000000000    0.502214290000    0.249735070000
Li    0.000000000000    0.002214290000    0.250264930000
Li    0.000000000000    0.665836530000    0.500000000000
Li    0.000000000000    0.002214290000    0.749735070000
Li    0.500000000000    0.502214290000    0.750264930000
Mg    0.000000000000    0.663067880000    0.000000000000
Mg    0.500000000000    0.163067880000    0.500000000000
%END BLOCK POSITIONS_FRAC
%BLOCK SPECIES_POT
Li li.gga.recpot
Mg mg.gga.recpot
%END BLOCK SPECIES_POT
