%BLOCK LATTICE_CART
   2.821265948640038   0.002442355473253  -0.000000049943628
  -1.408517866058222   2.444509218625066   0.000000012357680
  -0.000000034266616   0.000000006480468   4.630141728515142
%END BLOCK LATTICE_CART
%BLOCK POSITIONS_FRAC
    Al   0.000000000000000   0.000000000000000   0.000000000000000
    Al   0.666666666667000   0.333333333333000   0.500000000000000
%END BLOCK POSITIONS_FRAC
%BLOCK SPECIES_POT
    Al al.lda.recpot                                                                          
%END BLOCK SPECIES_POT
