%BLOCK LATTICE_CART
   2.805799707700000   0.000000000000000   0.000000000000000
   1.402899853850000   2.429893824799152   0.000000000000000
   0.000000000000003   0.000000000000002  50.543320895973750
%END BLOCK LATTICE_CART
%BLOCK POSITIONS_FRAC
    Al   0.000000000000000   0.000000000000000   0.000067993019669
    Al   0.333333333300000   0.333333333300000   0.045362121727672
    Al   0.666666666700000   0.666666666700000   0.090596089446433
    Al   0.000000000000000   0.000000000000000   0.135885941124936
    Al   0.333333333300000   0.333333333300000   0.181437092805553
    Al   0.000000000000000   0.000000000000000   0.227132686309505
    Al   0.400000000000000   0.400000000000000   0.273292766976624
    Al   0.733333333300000   0.733333333300000   0.318585797691551
    Al   0.066666666700000   0.066666666700000   0.363796035411271
    Al   0.400000000000000   0.400000000000000   0.409053921986408
    Al   0.733333333300000   0.733333333300000   0.454545238708746
    Al   0.400000000000000   0.400000000000000   0.500036578000943
    Al   0.066666666700000   0.066666666700000   0.545294523077845
    Al   0.733333333300000   0.733333333300000   0.590504852155216
    Al   0.400000000000000   0.400000000000000   0.635797992561187
    Al   0.000000000000000   0.000000000000000   0.681958186005411
    Al   0.333333333300000   0.333333333300000   0.727653897476050
    Al   0.000000000000000   0.000000000000000   0.773205147691258
    Al   0.666666666700000   0.666666666700000   0.818495088181568
    Al   0.333333333300000   0.333333333300000   0.863729117053292
    Al   0.000000000000000   0.000000000000000   0.909023284519224
    Al   0.666666666700000   0.666666666700000   0.954545643970876
%END BLOCK POSITIONS_FRAC
%BLOCK SPECIES_POT
    Al al_HC.lda.recpot                                                                       
%END BLOCK SPECIES_POT
%BLOCK ION_OPTIMIZATION
           0           0           1
           0           0           1
           0           0           1
           0           0           1
           0           0           1
           0           0           1
           0           0           1
           0           0           1
           0           0           1
           0           0           1
           0           0           1
           0           0           1
           0           0           1
           0           0           1
           0           0           1
           0           0           1
           0           0           1
           0           0           1
           0           0           1
           0           0           1
           0           0           1
           0           0           1
%END BLOCK ION_OPTIMIZATION
