ATOMIC_SPECIES
Al 26.981539 Al_ONCV_PBE-1.2.upf

LATTICE_CONSTANT
7.4984327225523  // add lattice constant

LATTICE_VECTORS
0.707106781187    0.000000000000    0.000000000000    
0.353553390593    0.612372435696    0.000000000000    
0.000000000000    0.000000000000    12.701705922171765

ATOMIC_POSITIONS
Direct

Al
0.0
22
    -2.7284903895E-30 -2.7951926232E-30  1.2345958987E-04 1 1 1
     3.3333333330E-01  3.3333333330E-01  4.5286850276E-02 1 1 1
     6.6666666670E-01  6.6666666670E-01  9.0759241118E-02 1 1 1
    -2.7151952910E-30 -2.7818975247E-30  1.3587525884E-01 1 1 1
     3.3333333330E-01  3.3333333330E-01  1.8136647225E-01 1 1 1
    -2.7148142263E-30 -2.7815164600E-30  2.2693000482E-01 1 1 1
     4.6666666670E-01  4.6666666670E-01  2.7338677022E-01 1 1 1
     8.0000000000E-01  8.0000000000E-01  3.1857771869E-01 1 1 1
     1.3333333330E-01  1.3333333330E-01  3.6391855437E-01 1 1 1
     4.6666666670E-01  4.6666666670E-01  4.0903522648E-01 1 1 1
     8.0000000000E-01  8.0000000000E-01  4.5454545455E-01 1 1 1
     4.6666666670E-01  4.6666666670E-01  5.0005568262E-01 1 1 1
     1.3333333330E-01  1.3333333330E-01  5.4517235473E-01 1 1 1
     8.0000000000E-01  8.0000000000E-01  5.9051319041E-01 1 1 1
     4.6666666670E-01  4.6666666670E-01  6.3570413888E-01 1 1 1
    -2.7148142263E-30 -2.7815164600E-30  6.8216090428E-01 1 1 1
     3.3333333330E-01  3.3333333330E-01  7.2772443685E-01 1 1 1
    -2.7151952910E-30 -2.7818975247E-30  7.7321565026E-01 1 1 1
     6.6666666670E-01  6.6666666670E-01  8.1833166798E-01 1 1 1
     3.3333333330E-01  3.3333333330E-01  8.6380405882E-01 1 1 1
    -2.7284903895E-30 -2.7951926232E-30  9.0896744951E-01 1 1 1
     6.6666666670E-01  6.6666666670E-01  9.5454545455E-01 1 1 1
