ATOMIC_SPECIES
Al 27 al.lda.lps

LATTICE_CONSTANT
7.50241114482

LATTICE_VECTORS
0.707106781187 0 0 #latvec1
0.353553390593 0.612372435696 0 #latvec2
0 0 12.7017059222 #latvec3

ATOMIC_POSITIONS
Direct

Al #label
0 #magnetism
22 #number of atoms
0 0 0.000623852701943 0 0 1 0 0 0
0.333333333332 0.333333333332 0.0450986229115 0 0 1 0 0 0
0.666666666668 0.666666666668 0.0914768564578 0 0 1 0 0 0
0 0 0.136142595446 0 0 1 0 0 0
0.333333333332 0.333333333332 0.181777400318 0 0 1 0 0 0
0 0 0.226159062706 0 0 1 0 0 0
0.433333333332 0.433333333332 0.274239521179 0 0 1 0 0 0
0.766666666666 0.766666666666 0.317952776601 0 0 1 0 0 0
0.1 0.1 0.363888077292 0 0 1 0 0 0
0.433333333332 0.433333333332 0.408596653826 0 0 1 0 0 0
0.766666666666 0.766666666666 0.454468374391 0 0 1 0 0 0
0.433333333332 0.433333333332 0.500349793727 0 0 1 0 0 0
0.1 0.1 0.545067636905 0 0 1 0 0 0
0.766666666666 0.766666666666 0.591037253193 0 0 1 0 0 0
0.433333333332 0.433333333332 0.634795478965 0 0 1 0 0 0
0 0 0.682917085549 0 0 1 0 0 0
0.333333333332 0.333333333332 0.727351401541 0 0 1 0 0 0
0 0 0.773021907717 0 0 1 0 0 0
0.666666666668 0.666666666668 0.817720280696 0 0 1 0 0 0
0.333333333332 0.333333333332 0.864114332068 0 0 1 0 0 0
0 0 0.908591046661 0 0 1 0 0 0
0.666666666668 0.666666666668 0.954609989147 0 0 1 0 0 0
