ATOMIC_SPECIES
Al 26.981539 al.lda.lps

LATTICE_CONSTANT
7.50241114482312  // add lattice constant

LATTICE_VECTORS
0.707106781187    0.000000000000    0.000000000000    
0.353553390593    0.612372435696    0.000000000000    
0.000000000000    0.000000000000    12.701705922171765

ATOMIC_POSITIONS
Direct

Al
0.0
22
    -1.6666640290E-11 -1.6666640290E-11  1.5582247048E-04 1 1 1
     3.3333333332E-01  3.3333333332E-01  4.5455285253E-02 1 1 1
     6.6666666665E-01  6.6666666665E-01  9.0975958309E-02 1 1 1
    -1.6666654168E-11 -1.6666654168E-11  1.3622411316E-01 1 1 1
     3.3333333332E-01  3.3333333332E-01  1.8170411545E-01 1 1 1
    -1.6666654168E-11 -1.6666654168E-11  2.2738679365E-01 1 1 1
     3.3333333332E-01  3.3333333332E-01  2.7286679594E-01 1 1 1
     6.6666666665E-01  6.6666666665E-01  3.1811495079E-01 1 1 1
    -1.6666640290E-11 -1.6666640290E-11  3.6363562385E-01 1 1 1
     3.3333333332E-01  3.3333333332E-01  4.0893508663E-01 1 1 1
     6.6666666665E-01  6.6666666665E-01  4.5454545455E-01 1 1 1
     3.3333333332E-01  3.3333333332E-01  5.0015582247E-01 1 1 1
    -1.6666640290E-11 -1.6666640290E-11  5.4545528525E-01 1 1 1
     6.6666666665E-01  6.6666666665E-01  5.9097595831E-01 1 1 1
     3.3333333332E-01  3.3333333332E-01  6.3622411316E-01 1 1 1
    -1.6666654168E-11 -1.6666654168E-11  6.8170411545E-01 1 1 1
     3.3333333332E-01  3.3333333332E-01  7.2738679365E-01 1 1 1
    -1.6666654168E-11 -1.6666654168E-11  7.7286679594E-01 1 1 1
     6.6666666665E-01  6.6666666665E-01  8.1811495079E-01 1 1 1
     3.3333333332E-01  3.3333333332E-01  8.6363562385E-01 1 1 1
    -1.6666640290E-11 -1.6666640290E-11  9.0893508663E-01 1 1 1
     6.6666666665E-01  6.6666666665E-01  9.5454545455E-01 1 1 1
