%BLOCK LATTICE_CART
   0.001016363432176   2.802550499853039   2.802759652281290
   2.802744908599599   0.001180937312778   2.802790164858656
   2.802704252504318   2.802540356206738   0.000970904127430
%END BLOCK LATTICE_CART
%BLOCK POSITIONS_FRAC
    Li   0.000000000000000   0.000000000000000   0.000000000000000
    Li   0.250000000000000   0.250000000000000   0.250000000000000
%END BLOCK POSITIONS_FRAC
%BLOCK SPECIES_POT
    Li li.lda.recpot                                                                          
%END BLOCK SPECIES_POT
