%BLOCK LATTICE_CART
   2.828739581100000   0.000000000000000   0.000000000000000
   1.414369790550000   2.449760337923151   0.000000000000000
   0.000000000000003   0.000000000000002  50.876151841284809
%END BLOCK LATTICE_CART
%BLOCK POSITIONS_FRAC
    Al   0.000000000000000   0.000000000000000   0.999965991569049
    Al   0.333333333300000   0.333333333300000   0.045383083241607
    Al   0.666666666700000   0.666666666700000   0.090811020263201
    Al   0.000000000000000   0.000000000000000   0.136218845098057
    Al   0.333333333300000   0.333333333300000   0.181611645510774
    Al   0.000000000000000   0.000000000000000   0.226933711299467
    Al   0.600000000000000   0.600000000000000   0.273049775697660
    Al   0.933333333300000   0.933333333300000   0.318384841515923
    Al   0.266666666700000   0.266666666700000   0.363796032400058
    Al   0.600000000000000   0.600000000000000   0.409192174472513
    Al   0.933333333300000   0.933333333300000   0.454546901710936
    Al   0.600000000000000   0.600000000000000   0.499901590046444
    Al   0.266666666700000   0.266666666700000   0.545297427580351
    Al   0.933333333300000   0.933333333300000   0.590708187204225
    Al   0.600000000000000   0.600000000000000   0.636042539497371
    Al   1.000000000000000   1.000000000000000   0.682157817154086
    Al   0.333333333300000   0.333333333300000   0.727478953116781
    Al   0.000000000000000   0.000000000000000   0.772870898573332
    Al   0.666666666700000   0.666666666700000   0.818277862891241
    Al   0.333333333300000   0.333333333300000   0.863705166343550
    Al   0.000000000000000   0.000000000000000   0.909121779082191
    Al   0.666666666700000   0.666666666700000   0.954543813777539
%END BLOCK POSITIONS_FRAC
%BLOCK SPECIES_POT
    Al al.lda.recpot                                                                          
%END BLOCK SPECIES_POT
%BLOCK ION_OPTIMIZATION
           0           0           1
           0           0           1
           0           0           1
           0           0           1
           0           0           1
           0           0           1
           0           0           1
           0           0           1
           0           0           1
           0           0           1
           0           0           1
           0           0           1
           0           0           1
           0           0           1
           0           0           1
           0           0           1
           0           0           1
           0           0           1
           0           0           1
           0           0           1
           0           0           1
           0           0           1
%END BLOCK ION_OPTIMIZATION
