%BLOCK LATTICE_CART
2.752330710123    0.000000000000    0.000000000000    
-1.376165355061    2.383588314582    0.000000000000    
0.000000000000    0.000000000000    4.383657182677    
%END BLOCK LATTICE_CART
%BLOCK POSITIONS_FRAC
Si    0.000000000000    0.000000000000    0.000000000000
Si    0.666666666667    0.333333333333    0.500000000000
%END BLOCK POSITIONS_FRAC
%BLOCK SPECIES_POT
Si si.gga.recpot
%END BLOCK SPECIES_POT
