%BLOCK LATTICE_CART
  -0.001145873302867   1.999638347671149   1.999638329814679
   1.999638292127276  -0.001145909384653   1.999638310620456
   1.999638286973320   1.999638323322970  -0.001145891592563
%END BLOCK LATTICE_CART
%BLOCK POSITIONS_FRAC
    Al   0.000000000000000   0.000000000000000   0.000000000000000
%END BLOCK POSITIONS_FRAC
%BLOCK SPECIES_POT
    Al al.lda.recpot                                                                          
%END BLOCK SPECIES_POT
