%BLOCK LATTICE_CART
1.973871039962    -3.418844928802    0.000000000000    
1.973871039962    3.418844928802    0.000000000000    
0.000000000000    0.000000000000    6.510497448898    
%END BLOCK LATTICE_CART
%BLOCK POSITIONS_FRAC
Ga    0.333333333333    0.666666666667    0.999984100000
Ga    0.666666666667    0.333333333333    0.499984100000
As    0.333333333333    0.666666666667    0.374015900000
As    0.666666666667    0.333333333333    0.874015900000
%END BLOCK POSITIONS_FRAC
%BLOCK SPECIES_POT
Ga ga.gga.recpot
As as.gga.recpot
%END BLOCK SPECIES_POT
