%BLOCK LATTICE_CART
  -1.676258433009549   1.675221428213839   1.675232825034585
   1.675223608437686  -1.676250387459903   1.675224767311515
   1.675227244044062   1.675217006090246  -1.676253941703473
%END BLOCK LATTICE_CART
%BLOCK POSITIONS_FRAC
    Li   0.000000000000000   0.000000000000000   0.000000000000000
%END BLOCK POSITIONS_FRAC
%BLOCK SPECIES_POT
    Li li.lda.recpot                                                                          
%END BLOCK SPECIES_POT
