%BLOCK LATTICE_CART
  -1.753627178982453   1.753999015843903   1.753999067783389
   1.753999086913546  -1.753627124442787   1.753999013336997
   1.753999102387099   1.753998976871063  -1.753627139968610
%END BLOCK LATTICE_CART
%BLOCK POSITIONS_FRAC
    Mg   0.000000000000000   0.000000000000000   0.000000000000000
%END BLOCK POSITIONS_FRAC
%BLOCK SPECIES_POT
    Mg mg.lda.recpot                                                                          
%END BLOCK SPECIES_POT
