ATOMIC_SPECIES
Al 27 al.lda.lps

LATTICE_CONSTANT
7.50241114482

LATTICE_VECTORS
0.707106781187 0 0 #latvec1
0.353553390593 0.612372435696 0 #latvec2
0 0 11.5470053838 #latvec3

ATOMIC_POSITIONS
Direct

Al #label
0 #magnetism
20 #number of atoms
0 0 0.000130826605094 0 0 1 0 0 0
0.333333333332 0.333333333332 0.0498877385914 0 0 1 0 0 0
0.666666666668 0.666666666668 0.100105289853 0 0 1 0 0 0
0 0 0.14997098616 0 0 1 0 0 0
0.333333333332 0.333333333332 0.199908819757 0 0 1 0 0 0
0 0 0.250089204399 0 0 1 0 0 0
0.333333333332 0.333333333332 0.299974955725 0 0 1 0 0 0
0.666666666668 0.666666666668 0.349998031375 0 0 1 0 0 0
0 0 0.399863007672 0 0 1 0 0 0
0.333333333332 0.333333333332 0.449977472389 0 0 1 0 0 0
0 0 0.500096705681 0 0 1 0 0 0
0.666666666668 0.666666666668 0.549968140525 0 0 1 0 0 0
0.333333333332 0.333333333332 0.600004257966 0 0 1 0 0 0
0 0 0.649906108115 0 0 1 0 0 0
0.333333333332 0.333333333332 0.700098182988 0 0 1 0 0 0
0 0 0.750046247607 0 0 1 0 0 0
0.666666666668 0.666666666668 0.799921921626 0 0 1 0 0 0
0.333333333332 0.333333333332 0.850139463915 0 0 1 0 0 0
0 0 0.899897009768 0 0 1 0 0 0
0.666666666668 0.666666666668 0.950015629282 0 0 1 0 0 0
