%BLOCK LATTICE_CART
   2.580053280816815   0.000000008550479   0.000000012937919
   0.000000008550479   2.580053281019176   0.000000004114011
   0.000000012937919   0.000000004114011   2.580053281019621
%END BLOCK LATTICE_CART
%BLOCK POSITIONS_FRAC
    Al   0.000000000000000   0.000000000000000   0.000000000000000
%END BLOCK POSITIONS_FRAC
%BLOCK SPECIES_POT
    Al al.lda.recpot                                                                          
%END BLOCK SPECIES_POT
