%BLOCK LATTICE_CART
   3.138211828680407   0.000151761658715  -0.000000134729733
  -1.568974370590294   2.717846847473707   0.000000006058359
  -0.000000084601415   0.000000003031846   5.111550811269141
%END BLOCK LATTICE_CART
%BLOCK POSITIONS_FRAC
    Mg   0.000000000000000   0.000000000000000   0.000000000000000
    Mg   0.666666666667000   0.333333333333000   0.500000000000000
%END BLOCK POSITIONS_FRAC
%BLOCK SPECIES_POT
    Mg mg.lda.recpot                                                                          
%END BLOCK SPECIES_POT
