%BLOCK LATTICE_CART
3.002138496240    0.000000000000    0.000000000000    
-1.501069248120    2.599928203423    0.000000000000    
0.000000000000    0.000000000000    4.781527864379    
%END BLOCK LATTICE_CART
%BLOCK POSITIONS_FRAC
Si    0.000000000000    0.000000000000    0.000000000000
Si    0.666666666667    0.333333333333    0.500000000000
%END BLOCK POSITIONS_FRAC
%BLOCK SPECIES_POT
Si si.gga.recpot
%END BLOCK SPECIES_POT
