ATOMIC_SPECIES
Ga 31 ga.gga.psp blps
P 15 p.gga.psp blps

LATTICE_CONSTANT
10.455828507096975  // add lattice constant

LATTICE_VECTORS
0.000000000000    0.500000000000    0.500000000000    
0.500000000000    0.000000000000    0.500000000000    
0.500000000000    0.500000000000    0.000000000000    

ATOMIC_POSITIONS
Direct

Ga
0.0
1
    0.000000000000    0.000000000000    0.000000000000 1 1 1
P
0.0
1
    0.250000000000    0.250000000000    0.250000000000 1 1 1
