ATOMIC_SPECIES
Ga  Ga_mass  Ga_pesudopotential
P  P_mass  P_pesudopotential
H  H_mass  H_pesudopotential
O  O_mass  O_pesudopotential
C  C_mass  C_pesudopotential

NUMERICAL_ORBITAL
Ga_orbital
P_orbital
H_orbital
O_orbital
C_orbital

LATTICE_CONSTANT
1.889727000000

LATTICE_VECTORS
15.605759999987  0.000000000000  0.000000000000
0.000000000000  16.552409999993  0.000000000000
0.000000000000  0.000000000000  30.388121999996

ATOMIC_POSITIONS
Direct

Ga
0
60
0.001432089709  0.022083699791  0.015670040374  1  1  1
0.001774527161  0.690098892361  0.015591594135  1  1  1
0.002281136211  0.357977579953  0.015347972179  1  1  1
0.501577785098  0.021806556863  0.015688078298  1  1  1
0.502103521845  0.676861600149  0.008426615919  1  1  1
0.498264698707  0.354326617099  0.015367378345  1  1  1
0.250418015706  0.022101684465  0.015804878691  1  1  1
0.249906367518  0.690236572500  0.015599267444  1  1  1
0.249964174900  0.354301930913  0.015525329107  1  1  1
0.750511135209  0.021742902011  0.015918985941  1  1  1
0.750314953499  0.678603195420  0.011624548104  1  1  1
0.750066259228  0.353495329210  0.015807502408  1  1  1
0.375728199959  0.164366413889  0.064210656349  1  1  1
0.376026360405  0.829905072123  0.064270211835  1  1  1
0.376343471075  0.498034587318  0.064479422533  1  1  1
0.876066455267  0.164628041307  0.064201872828  1  1  1
0.875032361056  0.829124334925  0.063877832621  1  1  1
0.875238353629  0.498047515241  0.064682430875  1  1  1
0.124098198708  0.165034732013  0.064221539180  1  1  1
0.124385594606  0.832836193737  0.064472478183  1  1  1
0.124764727893  0.497916668428  0.064374789121  1  1  1
0.624472966019  0.164557127485  0.064237267353  1  1  1
0.624612028523  0.829080275816  0.064243485522  1  1  1
0.623788156109  0.497607580321  0.064776903822  1  1  1
0.000000000000  0.000000000000  0.130439996734  0  0  0
0.000000000000  0.666670024140  0.130439996734  0  0  0
0.000000000000  0.333330005400  0.130439996734  0  0  0
0.500000000025  0.000000000000  0.130439996734  0  0  0
0.500000000025  0.666670024140  0.130439996734  0  0  0
0.500000000025  0.333330005400  0.130439996734  0  0  0
0.249999999980  0.000000000000  0.130439996734  0  0  0
0.249999999980  0.666670024140  0.130439996734  0  0  0
0.249999999980  0.333330005400  0.130439996734  0  0  0
0.750000000266  0.000000000000  0.130439996734  0  0  0
0.750000000266  0.666670024140  0.130439996734  0  0  0
0.750000000266  0.333330005400  0.130439996734  0  0  0
0.375691481874  0.164453747249  0.196516837229  1  1  1
0.376162258281  0.829402887783  0.196655790307  1  1  1
0.376598764478  0.498526196387  0.196270192755  1  1  1
0.876035430113  0.164669265976  0.196516493331  1  1  1
0.874828911231  0.828916987909  0.197095144665  1  1  1
0.873978284119  0.498486596947  0.196128868146  1  1  1
0.124047847896  0.165086997819  0.196504858409  1  1  1
0.124390003556  0.832861411089  0.196237916015  1  1  1
0.124498622587  0.498053890036  0.196340397248  1  1  1
0.624416114583  0.164620710637  0.196466365115  1  1  1
0.624583017567  0.828667066581  0.196761625592  1  1  1
0.623699070764  0.498167969748  0.196103519299  1  1  1
0.001408571852  0.022126778925  0.244981195519  1  1  1
0.001770289533  0.690142522173  0.245098138088  1  1  1
0.001952866012  0.358217255482  0.245358990131  1  1  1
0.501567853901  0.021859725880  0.244923326500  1  1  1
0.502228862559  0.676945404881  0.254680000498  1  1  1
0.498355451669  0.354548522900  0.245363305621  1  1  1
0.250419618512  0.022113093435  0.244837578937  1  1  1
0.249983689923  0.690298559913  0.245160396230  1  1  1
0.249925025759  0.354602140786  0.245146223444  1  1  1
0.750494226651  0.021786893030  0.244745499863  1  1  1
0.750217829578  0.678907639553  0.251622596275  1  1  1
0.749941629929  0.353654219786  0.244909059727  1  1  1

P
0
60
0.375969476611  0.091862401349  0.995801572994  1  1  1
0.376372576356  0.757035425259  0.997030957776  1  1  1
0.374917471209  0.425414348453  0.995439062465  1  1  1
0.875860180220  0.091915371958  0.995805830483  1  1  1
0.874896916889  0.755823340948  0.995589341074  1  1  1
0.874197275922  0.425550435863  0.995929758010  1  1  1
0.125659008712  0.092652600254  0.995631464784  1  1  1
0.125559451089  0.760570302217  0.995714016904  1  1  1
0.126631476308  0.426812492519  0.995140807665  1  1  1
0.625863043401  0.092484150371  0.995660601316  1  1  1
0.626507726190  0.756275596130  0.997479010289  1  1  1
0.625327066160  0.423646115148  0.996244841138  1  1  1
0.999859925010  0.249875035201  0.066055032494  1  1  1
0.999131468558  0.914823497330  0.066482222561  1  1  1
0.000352727857  0.581676875395  0.066226207131  1  1  1
0.500063781880  0.248400165208  0.066599537000  1  1  1
0.500592811914  0.914391474152  0.066525305582  1  1  1
0.500199326052  0.582011350404  0.066910032897  1  1  1
0.250188162461  0.247889978649  0.066597440877  1  1  1
0.250639476599  0.914780191414  0.066620901577  1  1  1
0.250244788833  0.581540078971  0.066170737179  1  1  1
0.750296459489  0.247463232052  0.066787668893  1  1  1
0.749906829411  0.913956070120  0.066557464392  1  1  1
0.749657047963  0.580395194670  0.067877775754  1  1  1
0.125000000022  0.083329997984  0.130439996734  0  0  0
0.125000000022  0.749999999849  0.130439996734  0  0  0
0.125000000022  0.416669994571  0.130439996734  0  0  0
0.624999999984  0.083329997984  0.130439996734  0  0  0
0.624999999984  0.749999999849  0.130439996734  0  0  0
0.624999999984  0.416669994571  0.130439996734  0  0  0
0.375000000004  0.083329997984  0.130439996734  0  0  0
0.375000000004  0.749999999849  0.130439996734  0  0  0
0.375000000004  0.416669994571  0.130439996734  0  0  0
0.875000000095  0.083329997984  0.130439996734  0  0  0
0.875000000095  0.749999999849  0.130439996734  0  0  0
0.875000000095  0.416669994571  0.130439996734  0  0  0
0.999789092433  0.249881659634  0.194814331395  1  1  1
0.999014416079  0.914665487166  0.194381885241  1  1  1
0.999803634141  0.581593261836  0.194609499026  1  1  1
0.500004316917  0.248420028076  0.194283311052  1  1  1
0.500606576600  0.914102969901  0.194380701821  1  1  1
0.500232800053  0.583202169978  0.194893198605  1  1  1
0.250116410144  0.247911965245  0.194291774275  1  1  1
0.250785640995  0.914554798607  0.194239948009  1  1  1
0.250138448521  0.581556209153  0.194661750041  1  1  1
0.750257708876  0.247473110126  0.194073299743  1  1  1
0.749796829758  0.913746705606  0.194347908907  1  1  1
0.749196518913  0.581871367260  0.194177668587  1  1  1
0.375964736198  0.091814054726  0.264966111079  1  1  1
0.376015269273  0.757352345123  0.264538623397  1  1  1
0.374888516935  0.425519990800  0.265310074477  1  1  1
0.875831547143  0.091903810442  0.264961985052  1  1  1
0.875552968038  0.756373172203  0.265818416296  1  1  1
0.873905118579  0.425731469157  0.264942226634  1  1  1
0.125655868389  0.092596858502  0.265131128979  1  1  1
0.125554771326  0.760585755527  0.265028554557  1  1  1
0.126409011679  0.426878196509  0.265620307326  1  1  1
0.625836135808  0.092474738099  0.265091521812  1  1  1
0.626303074200  0.757450829372  0.264543411055  1  1  1
0.625281693513  0.423761729134  0.264703971094  1  1  1

H
0
20
0.589760328532  0.674863244452  0.384847541219  1  1  1
0.719793859610  0.636717635696  0.363787754222  1  1  1
0.515132921777  0.736658567145  0.369826682666  1  1  1
0.514858511216  0.636712624289  0.341113425273  1  1  1
0.549001038573  0.823670506644  0.324144649425  1  1  1
0.449912600818  0.822170512709  0.328574603696  1  1  1
0.729802087735  0.713726077052  0.393202453532  1  1  1
0.464554877200  0.562152387840  0.309517199285  1  1  1
0.791907700605  0.546327407767  0.304159766736  1  1  1
0.589154562620  0.679257127261  0.880872518084  1  1  1
0.717140958828  0.635765287995  0.903014170254  1  1  1
0.514448796269  0.741428701604  0.895095488488  1  1  1
0.512563617491  0.638838120356  0.922695079419  1  1  1
0.549888896786  0.827511707506  0.940520797350  1  1  1
0.450736049705  0.826639255936  0.936483338251  1  1  1
0.728535293246  0.717544723964  0.878189064976  1  1  1
0.462046395451  0.563058627734  0.953272581673  1  1  1
0.792463689747  0.545269654848  0.959504074415  1  1  1
0.692047958465  0.548559120071  0.301536259016  1  1  1
0.692498344062  0.546090289277  0.962713891477  1  1  1

O
0
12
0.696846505922  0.663829074870  0.390235996659  1  1  1
0.526972169273  0.678058095403  0.377393045207  1  1  1
0.502666476161  0.827512970200  0.346428835724  1  1  1
0.508997567947  0.604108084710  0.308282956323  1  1  1
0.696331343623  0.666947714294  0.877399236691  1  1  1
0.525862959268  0.683005935912  0.887123957486  1  1  1
0.503241174408  0.833439072068  0.918534754572  1  1  1
0.507496218101  0.604033261568  0.954644154076  1  1  1
0.742611414665  0.583994270129  0.307328896307  1  1  1
0.742488106662  0.582310341950  0.956678485264  1  1  1
0.616275185871  0.490436568884  0.454130882696  1  1  1
0.615918067288  0.490272375732  0.813877703940  1  1  1

C
0
2
0.637720711031  0.487186735123  0.418093290190  1  1  1
0.634597859790  0.489334194568  0.850351158352  1  1  1
