ATOMIC_SPECIES
Ga  Ga_mass  Ga_pesudopotential
P  P_mass  P_pesudopotential
H  H_mass  H_pesudopotential
O  O_mass  O_pesudopotential
C  C_mass  C_pesudopotential

NUMERICAL_ORBITAL
Ga_orbital
P_orbital
H_orbital
O_orbital
C_orbital

LATTICE_CONSTANT
1.889727000000

LATTICE_VECTORS
15.605759999987  0.000000000000  0.000000000000
0.000000000000  16.552409999993  0.000000000000
0.000000000000  0.000000000000  30.388121999996

ATOMIC_POSITIONS
Direct

Ga
0
60
0.002070673005  0.022474747900  0.015604554836  1  1  1
0.997022747296  0.689838466965  0.015564303341  1  1  1
0.003409920666  0.353602166323  0.015817509900  1  1  1
0.498471611939  0.026464577798  0.015391397782  1  1  1
0.492033671744  0.676864603917  0.012213895249  1  1  1
0.489549428981  0.309532356887  0.981111293754  1  1  1
0.250422973106  0.022502874265  0.015741281039  1  1  1
0.243193708243  0.684800489655  0.015950129677  1  1  1
0.250913733646  0.360254607304  0.014914934575  1  1  1
0.749702980549  0.022918948034  0.015688778378  1  1  1
0.749915060058  0.689657368884  0.015754961442  1  1  1
0.763190562002  0.347580416622  0.018605642144  1  1  1
0.381620000839  0.167505857779  0.064705601113  1  1  1
0.375016261721  0.833097366291  0.064896048447  1  1  1
0.375886197168  0.490935225581  0.063613743428  1  1  1
0.876883293781  0.163877207090  0.064385503584  1  1  1
0.875553046368  0.832771143343  0.064416897181  1  1  1
0.876205081481  0.497236931518  0.064261557268  1  1  1
0.129237038417  0.165540500525  0.064289679104  1  1  1
0.124262506088  0.829816514847  0.064205363935  1  1  1
0.124189675068  0.497455374347  0.064229237220  1  1  1
0.617490911060  0.165891082012  0.064491058547  1  1  1
0.623528931572  0.833479539164  0.064399143813  1  1  1
0.623888691121  0.502081737086  0.066870517977  1  1  1
0.000000000000  0.000000000000  0.130439996734  0  0  0
0.000000000000  0.666670024140  0.130439996734  0  0  0
0.000000000000  0.333330005400  0.130439996734  0  0  0
0.500000000025  0.000000000000  0.130439996734  0  0  0
0.500000000025  0.666670024140  0.130439996734  0  0  0
0.500000000025  0.333330005400  0.130439996734  0  0  0
0.249999999980  0.000000000000  0.130439996734  0  0  0
0.249999999980  0.666670024140  0.130439996734  0  0  0
0.249999999980  0.333330005400  0.130439996734  0  0  0
0.750000000266  0.000000000000  0.130439996734  0  0  0
0.750000000266  0.666670024140  0.130439996734  0  0  0
0.750000000266  0.333330005400  0.130439996734  0  0  0
0.378199953168  0.170204792850  0.195823901518  1  1  1
0.375325988566  0.832791510674  0.195974058252  1  1  1
0.376066139046  0.490348641963  0.198982073391  1  1  1
0.876517789126  0.164326714029  0.196264411770  1  1  1
0.875632841406  0.832860801615  0.196209675636  1  1  1
0.875999175872  0.497257876389  0.196447834410  1  1  1
0.128891908169  0.165559911347  0.196382682884  1  1  1
0.124327276619  0.830017404285  0.196437832919  1  1  1
0.124373338441  0.497399907174  0.196473625244  1  1  1
0.617437928222  0.166026356588  0.196146510696  1  1  1
0.623628298995  0.833413172477  0.196370541243  1  1  1
0.623927936249  0.498113889997  0.195984004609  1  1  1
0.001934897261  0.022596519430  0.244961428501  1  1  1
0.997285191983  0.689866636805  0.244974454169  1  1  1
0.003452048750  0.353732073652  0.244892369637  1  1  1
0.498008288050  0.027140624629  0.245051277572  1  1  1
0.495755167194  0.676843699657  0.248633478730  1  1  1
0.489160844883  0.304144661640  0.279598026696  1  1  1
0.250321982003  0.022678354541  0.244812602753  1  1  1
0.243673328363  0.684857420982  0.244700838635  1  1  1
0.250751721292  0.360601541809  0.248181816266  1  1  1
0.749620606817  0.023107922295  0.244876780752  1  1  1
0.750233687017  0.689405831875  0.244813557897  1  1  1
0.763487240625  0.347024352464  0.244432475801  1  1  1

P
0
60
0.373884889350  0.094361215211  0.995399223443  1  1  1
0.369640717693  0.755803343227  0.998692053313  1  1  1
0.376360632185  0.425308567209  0.995185805826  1  1  1
0.875964267056  0.091511285452  0.995742829851  1  1  1
0.872889733383  0.760714549366  0.995134190323  1  1  1
0.878821740773  0.423745254232  0.995724905478  1  1  1
0.125938623755  0.092604005358  0.995442912041  1  1  1
0.122018895668  0.758545588580  0.994994696079  1  1  1
0.123791991046  0.426561100577  0.995239746008  1  1  1
0.625223434587  0.093102295241  0.995351688708  1  1  1
0.619737836091  0.753796361043  0.997386149119  1  1  1
0.627294268065  0.406533803336  0.006281237221  1  1  1
0.001915332303  0.247222257618  0.066759667113  1  1  1
0.000714216902  0.915023707326  0.066324907995  1  1  1
0.999394846902  0.582271975405  0.066289867980  1  1  1
0.501046059554  0.256554374906  0.063074064645  1  1  1
0.499245230386  0.916648536466  0.065698449118  1  1  1
0.497236958328  0.580230957150  0.068124509243  1  1  1
0.252963670483  0.250204350554  0.065727092580  1  1  1
0.249113216726  0.914626688173  0.066419054643  1  1  1
0.250604080431  0.579810772374  0.067102412221  1  1  1
0.750085760464  0.243401281050  0.068544172636  1  1  1
0.749870282869  0.914865668800  0.066206364559  1  1  1
0.750673840401  0.582181513056  0.066235958200  1  1  1
0.125000000022  0.083329997984  0.130439996734  0  0  0
0.125000000022  0.749999999849  0.130439996734  0  0  0
0.125000000022  0.416669994571  0.130439996734  0  0  0
0.624999999984  0.083329997984  0.130439996734  0  0  0
0.624999999984  0.749999999849  0.130439996734  0  0  0
0.624999999984  0.416669994571  0.130439996734  0  0  0
0.375000000004  0.083329997984  0.130439996734  0  0  0
0.375000000004  0.749999999849  0.130439996734  0  0  0
0.375000000004  0.416669994571  0.130439996734  0  0  0
0.875000000095  0.083329997984  0.130439996734  0  0  0
0.875000000095  0.749999999849  0.130439996734  0  0  0
0.875000000095  0.416669994571  0.130439996734  0  0  0
0.001671179765  0.247322579204  0.194061118132  1  1  1
0.000735940038  0.915014982606  0.194426687928  1  1  1
0.999467424062  0.582016183714  0.194454630862  1  1  1
0.500365981188  0.256278766755  0.197408972814  1  1  1
0.499329674286  0.916592074582  0.195160501995  1  1  1
0.498388910854  0.578990838093  0.193362876828  1  1  1
0.251005436221  0.252159295676  0.195758758842  1  1  1
0.249376094819  0.914454203286  0.194418987487  1  1  1
0.250901685887  0.579405456778  0.193900363453  1  1  1
0.749836594080  0.244511252545  0.193011547075  1  1  1
0.749907270365  0.914820991415  0.194551743508  1  1  1
0.749891309676  0.581149217810  0.194744346512  1  1  1
0.373321780425  0.095262048151  0.264846953874  1  1  1
0.371301518683  0.754513397518  0.262009486950  1  1  1
0.377574831220  0.423555915237  0.267189804479  1  1  1
0.875870776060  0.091635383154  0.264859429298  1  1  1
0.873228663449  0.760540305511  0.265384982571  1  1  1
0.879470185947  0.424419965148  0.265436714471  1  1  1
0.125760808845  0.092615120293  0.265209599838  1  1  1
0.122374705998  0.758576094703  0.265589769510  1  1  1
0.123089116815  0.427477854709  0.265963599528  1  1  1
0.624987603653  0.093229809682  0.265288432437  1  1  1
0.621479316552  0.754653551274  0.264254532212  1  1  1
0.627080922758  0.403797109388  0.257155655197  1  1  1

H
0
20
0.570397109480  0.687495654800  0.377881348803  1  1  1
0.671427752536  0.725443100011  0.339083905447  1  1  1
0.487540254123  0.746025465201  0.362482966388  1  1  1
0.488458142449  0.644186146466  0.353216918211  1  1  1
0.528067795684  0.822852581655  0.322964929182  1  1  1
0.428800156564  0.808839787752  0.319964353824  1  1  1
0.698380677708  0.744739066071  0.387904615601  1  1  1
0.436990398687  0.549231795047  0.300019890775  1  1  1
0.539471057123  0.561979745671  0.307711454989  1  1  1
0.570798880663  0.691546901868  0.885836446563  1  1  1
0.670104532517  0.729431463835  0.924652553928  1  1  1
0.489026619043  0.751323730432  0.901553138681  1  1  1
0.487481659948  0.648273277035  0.909537758386  1  1  1
0.531142293096  0.824590741089  0.941797173288  1  1  1
0.431035064960  0.814113029376  0.943148490681  1  1  1
0.697605032632  0.749925232743  0.875990939149  1  1  1
0.434358821521  0.549200438158  0.962659418910  1  1  1
0.537065439653  0.562890882187  0.955125900113  1  1  1
0.712732283798  0.455705606463  0.361123867183  1  1  1
0.712336801767  0.460417826597  0.902501722654  1  1  1

O
0
12
0.668626356893  0.704695521153  0.369811968756  1  1  1
0.504305889934  0.685427868813  0.376705025818  1  1  1
0.476851811957  0.817912426481  0.342220753232  1  1  1
0.481450032752  0.591898902019  0.306496599812  1  1  1
0.668564150127  0.708938257156  0.893762710087  1  1  1
0.504560416568  0.690333207132  0.886916137771  1  1  1
0.480550544487  0.822827029257  0.921760767079  1  1  1
0.478616527303  0.592236036774  0.956102435410  1  1  1
0.628849758330  0.530730426182  0.317464088595  1  1  1
0.704712425301  0.420635305389  0.335147806032  1  1  1
0.627427057846  0.533754266916  0.946369272490  1  1  1
0.704614450482  0.424748050238  0.928258952777  1  1  1

C
0
2
0.654674310802  0.462120614573  0.306625540637  1  1  1
0.654202964198  0.465247290453  0.956965829802  1  1  1
