%BLOCK LATTICE_CART
-1.743449746862    1.743449746862    1.743449746862    
1.743449746862    -1.743449746862    1.743449746862    
1.743449746862    1.743449746862    -1.743449746862    
%END BLOCK LATTICE_CART
%BLOCK POSITIONS_FRAC
Mg    0.000000000000    0.000000000000    0.000000000000
%END BLOCK POSITIONS_FRAC
%BLOCK SPECIES_POT
Mg mg.lda.recpot
%END BLOCK SPECIES_POT
