%BLOCK LATTICE_CART
2.761731173948    0.000000000000    0.000000000000    
-1.380865586974    2.391729355062    0.000000000000    
0.000000000000    0.000000000000    4.398629369928    
%END BLOCK LATTICE_CART
%BLOCK POSITIONS_FRAC
Si    0.000000000000    0.000000000000    0.000000000000
Si    0.666666666667    0.333333333333    0.500000000000
%END BLOCK POSITIONS_FRAC
%BLOCK SPECIES_POT
Si si.gga.recpot
%END BLOCK SPECIES_POT
