ATOMIC_SPECIES
Mg 24.305 mg.gga.psp blps
Al 26.981 al.gga.psp blps

LATTICE_CONSTANT
1.8897259885789233  // add lattice constant

LATTICE_VECTORS
3.000126330000    0.000000000000    0.000000000000    
0.000000000000    3.000126330000    0.000000000000    
0.000000000000    0.000000000000    4.176459360000    

ATOMIC_POSITIONS
Direct

Mg
0.0
1
    0.500000000000    0.500000000000    0.500000000000 1 1 1
Al
0.0
1
    0.000000000000    0.000000000000    0.000000000000 1 1 1
