%BLOCK LATTICE_CART
   2.805799707700000   0.000000000000000   0.000000000000000
   1.402899853850000   2.429893824799152   0.000000000000000
   0.000000000000003   0.000000000000002  50.619577623518765
%END BLOCK LATTICE_CART
%BLOCK POSITIONS_FRAC
    Al   0.000000000000000   0.000000000000000   0.999982380270028
    Al   0.333333333300000   0.333333333300000   0.045174022794392
    Al   0.666666666700000   0.666666666700000   0.090328814279614
    Al   0.000000000000000   0.000000000000000   0.135556016696373
    Al   0.333333333300000   0.333333333300000   0.181030584371420
    Al   0.000000000000000   0.000000000000000   0.226561985489535
    Al   0.533333333300000   0.533333333300000   0.273364842923491
    Al   0.866666666700000   0.866666666700000   0.318733043033887
    Al   0.200000000000000   0.200000000000000   0.363915961129533
    Al   0.533333333300000   0.533333333300000   0.409113657703297
    Al   0.866666666700000   0.866666666700000   0.454545276657748
    Al   0.533333333300000   0.533333333300000   0.499976895389970
    Al   0.200000000000000   0.200000000000000   0.545174638797469
    Al   0.866666666700000   0.866666666700000   0.590357654102404
    Al   0.533333333300000   0.533333333300000   0.635725936386447
    Al   1.000000000000000   1.000000000000000   0.682528941513926
    Al   0.333333333300000   0.333333333300000   0.728060389821788
    Al   1.000000000000000   1.000000000000000   0.773535111768590
    Al   0.666666666700000   0.666666666700000   0.818762327560869
    Al   0.333333333300000   0.333333333300000   0.863917265307994
    Al   0.000000000000000   0.000000000000000   0.909108881654320
    Al   0.666666666700000   0.666666666700000   0.954545665513300
%END BLOCK POSITIONS_FRAC
%BLOCK SPECIES_POT
    Al al_HC.lda.recpot                                                                       
%END BLOCK SPECIES_POT
%BLOCK ION_OPTIMIZATION
           0           0           1
           0           0           1
           0           0           1
           0           0           1
           0           0           1
           0           0           1
           0           0           1
           0           0           1
           0           0           1
           0           0           1
           0           0           1
           0           0           1
           0           0           1
           0           0           1
           0           0           1
           0           0           1
           0           0           1
           0           0           1
           0           0           1
           0           0           1
           0           0           1
           0           0           1
%END BLOCK ION_OPTIMIZATION
