ATOMIC_SPECIES
Li 6.941 li.gga.psp.1 blps
Mg 24.305 mg.gga.psp blps

LATTICE_CONSTANT
1.8897259885789233  // add lattice constant

LATTICE_VECTORS
1.545751010091    -2.677319285329    0.000000000000    
1.545751010091    2.677319285329    0.000000000000    
0.000000000000    0.000000000000    15.243156295759    

ATOMIC_POSITIONS
Direct

Li
0.0
3
    0.000000000000    0.000000000000    0.000000000000 1 1 1
    0.666666666667    0.333333333333    0.333333333333 1 1 1
    0.333333333333    0.666666666667    0.666666666667 1 1 1
Mg
0.0
3
    0.333333333333    0.666666666667    0.166666666667 1 1 1
    1.000000000000    1.000000000000    0.500000000000 1 1 1
    0.666666666667    0.333333333333    0.833333333333 1 1 1
