%BLOCK LATTICE_CART
  -1.595710575419161   1.596039500104126   1.596039438813646
   1.596039330319913  -1.595710556043236   1.596039419099073
   1.596039316327655   1.596039466397297  -1.595710541968362
%END BLOCK LATTICE_CART
%BLOCK POSITIONS_FRAC
    Al   0.000000000000000   0.000000000000000   0.000000000000000
%END BLOCK POSITIONS_FRAC
%BLOCK SPECIES_POT
    Al al.lda.recpot                                                                          
%END BLOCK SPECIES_POT
