%BLOCK LATTICE_CART
  -1.590679619729049   1.591066638693174   1.591066619728233
   1.591066565092499  -1.590679589785758   1.591066589758516
   1.591066561064056   1.591066604695012  -1.590679585751861
%END BLOCK LATTICE_CART
%BLOCK POSITIONS_FRAC
    Al   0.000000000000000   0.000000000000000   0.000000000000000
%END BLOCK POSITIONS_FRAC
%BLOCK SPECIES_POT
    Al al.lda.recpot                                                                          
%END BLOCK SPECIES_POT
