ATOMIC_SPECIES
Mg 24.305 mg.gga.psp blps
Al 26.981 al.gga.psp blps

LATTICE_CONSTANT
1.8897259885789233  // add lattice constant

LATTICE_VECTORS
1.494709902549    -2.588913493792    0.000000000000    
1.494709902549    2.588913493792    0.000000000000    
0.000000000000    0.000000000000    15.014124361325    

ATOMIC_POSITIONS
Direct

Mg
0.0
3
    0.333333333333    0.666666666667    0.166666666667 1 1 1
    1.000000000000    1.000000000000    0.500000000000 1 1 1
    0.666666666667    0.333333333333    0.833333333333 1 1 1
Al
0.0
3
    0.000000000000    0.000000000000    0.000000000000 1 1 1
    0.666666666667    0.333333333333    0.333333333333 1 1 1
    0.333333333333    0.666666666667    0.666666666667 1 1 1
