%BLOCK LATTICE_CART
   2.805799707700000   0.000000000000000   0.000000000000000
   1.402899853850000   2.429893824799152   0.000000000000000
   0.000000000000003   0.000000000000002  51.469923392857510
%END BLOCK LATTICE_CART
%BLOCK POSITIONS_FRAC
    Al   0.000000000000000   0.000000000000000   0.999906570874611
    Al   0.333333333300000   0.333333333300000   0.045235990866083
    Al   0.666666666700000   0.666666666700000   0.090561960437285
    Al   0.000000000000000   0.000000000000000   0.135885962696639
    Al   0.333333333300000   0.333333333300000   0.181237610698046
    Al   0.000000000000000   0.000000000000000   0.226631407057566
    Al   0.500000000000000   0.500000000000000   0.273193323869350
    Al   0.833333333300000   0.833333333300000   0.318557464075376
    Al   0.166666666700000   0.166666666700000   0.363877992261658
    Al   0.500000000000000   0.500000000000000   0.409196647139803
    Al   0.833333333300000   0.833333333300000   0.454543038012863
    Al   0.500000000000000   0.500000000000000   0.499889648496698
    Al   0.166666666700000   0.166666666700000   0.545208921082548
    Al   0.833333333300000   0.833333333300000   0.590530398492993
    Al   0.500000000000000   0.500000000000000   0.635895728967636
    Al   0.000000000000000   0.000000000000000   0.682458894225184
    Al   0.333333333300000   0.333333333300000   0.727854091975048
    Al   0.000000000000000   0.000000000000000   0.773207059660374
    Al   0.666666666700000   0.666666666700000   0.818532189922760
    Al   0.333333333300000   0.333333333300000   0.863859011014865
    Al   0.000000000000000   0.000000000000000   0.909188954784536
    Al   0.666666666700000   0.666666666700000   0.954547850420365
%END BLOCK POSITIONS_FRAC
%BLOCK SPECIES_POT
    Al al.lda.recpot                                                                          
%END BLOCK SPECIES_POT
%BLOCK ION_OPTIMIZATION
           0           0           1
           0           0           1
           0           0           1
           0           0           1
           0           0           1
           0           0           1
           0           0           1
           0           0           1
           0           0           1
           0           0           1
           0           0           1
           0           0           1
           0           0           1
           0           0           1
           0           0           1
           0           0           1
           0           0           1
           0           0           1
           0           0           1
           0           0           1
           0           0           1
           0           0           1
%END BLOCK ION_OPTIMIZATION
