%BLOCK LATTICE_CART
   2.805799707700000   0.000000000000000   0.000000000000000
   1.402899853850000   2.429893824799152   0.000000000000000
   0.000000000000003   0.000000000000002  46.012459720973460
%END BLOCK LATTICE_CART
%BLOCK POSITIONS_FRAC
    Al   0.000000000000000   0.000000000000000   0.000035591746689
    Al   0.333333333300000   0.333333333300000   0.049826902027799
    Al   0.666666666700000   0.666666666700000   0.099559168238547
    Al   0.000000000000000   0.000000000000000   0.149338866272232
    Al   0.333333333300000   0.333333333300000   0.199275489707959
    Al   0.800000000000000   0.800000000000000   0.250724727321256
    Al   0.133333333300000   0.133333333300000   0.300612194527088
    Al   0.466666666700000   0.466666666700000   0.350311295731851
    Al   0.800000000000000   0.800000000000000   0.400024846595731
    Al   0.133333333300000   0.133333333300000   0.450000126619227
    Al   0.800000000000000   0.800000000000000   0.499975417670145
    Al   0.466666666700000   0.466666666700000   0.549688945819317
    Al   0.133333333300000   0.133333333300000   0.599387957531746
    Al   0.800000000000000   0.800000000000000   0.649275303095091
    Al   0.333333333300000   0.333333333300000   0.700724447793478
    Al   0.000000000000000   0.000000000000000   0.750661005847826
    Al   0.666666666700000   0.666666666700000   0.800440680808872
    Al   0.333333333300000   0.333333333300000   0.850172918257612
    Al   0.000000000000000   0.000000000000000   0.899964173594417
    Al   0.666666666700000   0.666666666700000   0.949999863240384
%END BLOCK POSITIONS_FRAC
%BLOCK SPECIES_POT
    Al al_HC.lda.recpot                                                                       
%END BLOCK SPECIES_POT
%BLOCK ION_OPTIMIZATION
           0           0           1
           0           0           1
           0           0           1
           0           0           1
           0           0           1
           0           0           1
           0           0           1
           0           0           1
           0           0           1
           0           0           1
           0           0           1
           0           0           1
           0           0           1
           0           0           1
           0           0           1
           0           0           1
           0           0           1
           0           0           1
           0           0           1
           0           0           1
%END BLOCK ION_OPTIMIZATION
