%BLOCK LATTICE_CART
1.494709902549    -2.588913493792    0.000000000000    
1.494709902549    2.588913493792    0.000000000000    
0.000000000000    0.000000000000    15.014124361325    
%END BLOCK LATTICE_CART
%BLOCK POSITIONS_FRAC
Mg    0.333333333333    0.666666666667    0.166666666667
Mg    1.000000000000    1.000000000000    0.500000000000
Mg    0.666666666667    0.333333333333    0.833333333333
Al    0.000000000000    0.000000000000    0.000000000000
Al    0.666666666667    0.333333333333    0.333333333333
Al    0.333333333333    0.666666666667    0.666666666667
%END BLOCK POSITIONS_FRAC
%BLOCK SPECIES_POT
Mg mg.gga.recpot
Al al.gga.recpot
%END BLOCK SPECIES_POT
