ATOMIC_SPECIES
Al 26.981539 Al_ONCV_PBE-1.2.upf

LATTICE_CONSTANT
7.4984327225523  // add lattice constant

LATTICE_VECTORS
0.707106781187    0.000000000000    0.000000000000    
0.353553390593    0.612372435696    0.000000000000    
0.000000000000    0.000000000000    11.547005383792515 

ATOMIC_POSITIONS
Direct

Al
0.0
20
    1.8530313171E-30  1.8530313171E-30  1.6614552594E-04 1 1 1
    3.3333333330E-01  3.3333333330E-01  4.9884502450E-02 1 1 1
    6.6666666670E-01  6.6666666670E-01  9.9900354072E-02 1 1 1
    1.6874918124E-30  1.7184609059E-30  1.4966127925E-01 1 1 1
    3.3333333330E-01  3.3333333330E-01  1.9962701146E-01 1 1 1
    9.3333333330E-01  9.3333333330E-01  2.5047510971E-01 1 1 1
    2.6666666670E-01  2.6666666670E-01  3.0037849845E-01 1 1 1
    6.0000000000E-01  6.0000000000E-01  3.5016052175E-01 1 1 1
    9.3333333330E-01  9.3333333330E-01  3.9987996229E-01 1 1 1
    2.6666666670E-01  2.6666666670E-01  4.5000000000E-01 1 1 1
    9.3333333330E-01  9.3333333330E-01  5.0012003771E-01 1 1 1
    6.0000000000E-01  6.0000000000E-01  5.4983947825E-01 1 1 1
    2.6666666670E-01  2.6666666670E-01  5.9962150155E-01 1 1 1
    9.3333333330E-01  9.3333333330E-01  6.4952489029E-01 1 1 1
    3.3333333330E-01  3.3333333330E-01  7.0037298854E-01 1 1 1
    1.7210918127E-30  1.8449681867E-30  7.5033872075E-01 1 1 1
    6.6666666670E-01  6.6666666670E-01  8.0009964593E-01 1 1 1
    3.3333333330E-01  3.3333333330E-01  8.5011549755E-01 1 1 1
    1.7616354044E-30  1.7616354044E-30  8.9983385447E-01 1 1 1
    6.6666666670E-01  6.6666666670E-01  9.5000000000E-01 1 1 1
