%BLOCK LATTICE_CART
2.925891093838    0.000000000000    0.000000000000    
-1.462945546919    2.533896015970    0.000000000000    
0.000000000000    0.000000000000    4.785065359236    
%END BLOCK LATTICE_CART
%BLOCK POSITIONS_FRAC
Mg    0.000000000000    0.000000000000    0.000000000000
Mg    0.666666666667    0.333333333333    0.500000000000
%END BLOCK POSITIONS_FRAC
%BLOCK SPECIES_POT
Mg mg.gga.recpot
%END BLOCK SPECIES_POT
