%BLOCK LATTICE_CART
   2.833725690800000   0.000000000000000   0.000000000000000
   1.416862845400000   2.454078435589407   0.000000000000000
   0.000000000000003   0.000000000000002  46.420870042713204
%END BLOCK LATTICE_CART
%BLOCK POSITIONS_FRAC
    Al   0.000000000000000   0.000000000000000   0.999843232102815
    Al   0.333333333300000   0.333333333300000   0.049743945086387
    Al   0.666666666700000   0.666666666700000   0.099648489280942
    Al   0.000000000000000   0.000000000000000   0.149552008508464
    Al   0.333333333300000   0.333333333300000   0.199445761835550
    Al   0.866666666700000   0.866666666700000   0.250569414910165
    Al   0.200000000000000   0.200000000000000   0.300451033819676
    Al   0.533333333300000   0.533333333300000   0.350332550303678
    Al   0.866666666700000   0.866666666700000   0.400200684288267
    Al   0.200000000000000   0.200000000000000   0.450000730038209
    Al   0.866666666700000   0.866666666700000   0.499800758078342
    Al   0.533333333300000   0.533333333300000   0.549668725511617
    Al   0.200000000000000   0.200000000000000   0.599549839502829
    Al   0.866666666700000   0.866666666700000   0.649430914476046
    Al   0.333333333300000   0.333333333300000   0.700554085316373
    Al   1.000000000000000   1.000000000000000   0.750447413015985
    Al   0.666666666700000   0.666666666700000   0.800350637839528
    Al   0.333333333300000   0.333333333300000   0.850254912728683
    Al   0.000000000000000   0.000000000000000   0.900155356952548
    Al   0.666666666700000   0.666666666700000   0.949999230920982
%END BLOCK POSITIONS_FRAC
%BLOCK SPECIES_POT
    Al al.lda.recpot                                                                          
%END BLOCK SPECIES_POT
%BLOCK ION_OPTIMIZATION
           0           0           1
           0           0           1
           0           0           1
           0           0           1
           0           0           1
           0           0           1
           0           0           1
           0           0           1
           0           0           1
           0           0           1
           0           0           1
           0           0           1
           0           0           1
           0           0           1
           0           0           1
           0           0           1
           0           0           1
           0           0           1
           0           0           1
           0           0           1
%END BLOCK ION_OPTIMIZATION
