%BLOCK LATTICE_CART
0.000000000000    2.889102550921    2.889102550921    
2.889102550921    0.000000000000    2.889102550921    
2.889102550921    2.889102550921    0.000000000000    
%END BLOCK LATTICE_CART
%BLOCK POSITIONS_FRAC
Al    0.000000000000    0.000000000000    0.000000000000
As    0.250000000000    0.250000000000    0.250000000000
%END BLOCK POSITIONS_FRAC
%BLOCK SPECIES_POT
Al al.gga.recpot
As as.gga.recpot
%END BLOCK SPECIES_POT
