ATOMIC_SPECIES
N 14 /home/mhchen_pkuhpc/mhchen_cls/lustre2/5_liurenxi/03a01_abacus-lcao-scan/pp/SG15_ONCV_v1.0_upf/N_ONCV_PBE-1.0.upf
C 12 /home/mhchen_pkuhpc/mhchen_cls/lustre2/5_liurenxi/03a01_abacus-lcao-scan/pp/SG15_ONCV_v1.0_upf/C_ONCV_PBE-1.0.upf
H 1 /home/mhchen_pkuhpc/mhchen_cls/lustre2/5_liurenxi/03a01_abacus-lcao-scan/pp/SG15_ONCV_v1.0_upf/H_ONCV_PBE-1.0.upf
N_empty 14 /home/mhchen_pkuhpc/mhchen_cls/lustre2/5_liurenxi/03a01_abacus-lcao-scan/pp/SG15_ONCV_v1.0_upf/N_ONCV_PBE-1.0.upf
C_empty 12 /home/mhchen_pkuhpc/mhchen_cls/lustre2/5_liurenxi/03a01_abacus-lcao-scan/pp/SG15_ONCV_v1.0_upf/C_ONCV_PBE-1.0.upf
O_empty 16 /home/mhchen_pkuhpc/mhchen_cls/lustre2/5_liurenxi/03a01_abacus-lcao-scan/pp/SG15_ONCV_v1.0_upf/O_ONCV_PBE-1.0.upf
H_empty 1 /home/mhchen_pkuhpc/mhchen_cls/lustre2/5_liurenxi/03a01_abacus-lcao-scan/pp/SG15_ONCV_v1.0_upf/H_ONCV_PBE-1.0.upf

LATTICE_CONSTANT
1.8897161646321

LATTICE_VECTORS
20 0 0
0 20 0
0 0 20

NUMERICAL_ORBITAL
/home/mhchen_pkuhpc/mhchen_cls/lustre2/5_liurenxi/03a01_abacus-lcao-scan/orb/Orb_DZP_E100_Full/N/N_gga_10au_100Ry_2s2p1d.orb
/home/mhchen_pkuhpc/mhchen_cls/lustre2/5_liurenxi/03a01_abacus-lcao-scan/orb/Orb_DZP_E100_Full/C/C_gga_10au_100Ry_2s2p1d.orb
/home/mhchen_pkuhpc/mhchen_cls/lustre2/5_liurenxi/03a01_abacus-lcao-scan/orb/Orb_DZP_E100_Full/H/H_gga_10au_100Ry_2s1p.orb
/home/mhchen_pkuhpc/mhchen_cls/lustre2/5_liurenxi/03a01_abacus-lcao-scan/orb/Orb_DZP_E100_Full/N/N_gga_10au_100Ry_2s2p1d.orb
/home/mhchen_pkuhpc/mhchen_cls/lustre2/5_liurenxi/03a01_abacus-lcao-scan/orb/Orb_DZP_E100_Full/C/C_gga_10au_100Ry_2s2p1d.orb
/home/mhchen_pkuhpc/mhchen_cls/lustre2/5_liurenxi/03a01_abacus-lcao-scan/orb/Orb_DZP_E100_Full/O/O_gga_10au_100Ry_2s2p1d.orb
/home/mhchen_pkuhpc/mhchen_cls/lustre2/5_liurenxi/03a01_abacus-lcao-scan/orb/Orb_DZP_E100_Full/H/H_gga_10au_100Ry_2s1p.orb

ATOMIC_POSITIONS
Cartesian    # Cartesian(Unit is LATTICE_CONSTANT)
N
0.0
5
0.935015 -0.027980 -0.378892 m 0 0 0 
2.853151 0.025803 -1.840960 m 0 0 0 
4.088582 -0.005443 1.528979 m 0 0 0 
4.929487 0.041240 -0.556727 m 0 0 0 
1.071618 -0.076537 1.939139 m 0 0 0 
C
0.0
5
1.673964 -0.035777 0.742432 m 0 0 0 
3.074796 -0.009448 0.599456 m 0 0 0 
3.564611 0.019545 -0.705987 m 0 0 0 
1.549076 0.001257 -1.580801 m 0 0 0 
5.182992 0.025397 0.787218 m 0 0 0 
H
0.0
5
0.879444 0.005026 -2.431571 m 0 0 0 
6.188259 0.037554 1.173882 m 0 0 0 
5.603537 0.064876 -1.303681 m 0 0 0 
0.058692 -0.042376 2.003918 m 0 0 0 
1.644380 -0.034739 2.761916 m 0 0 0 
N_empty
0.0
2
-3.921173 -0.000965 -1.516366 m 0 0 0 
-1.925648 -0.011059 -0.363895 m 0 0 0 
C_empty
0.0
5
-4.613683 0.016905 -0.333652 m 0 0 0 
-3.991739 0.021935 0.866334 m 0 0 0 
-2.536137 0.007465 0.876672 m 0 0 0 
-2.539590 -0.014947 -1.596236 m 0 0 0 
-4.710613 0.041337 2.173864 m 0 0 0 
O_empty
0.0
2
-1.867473 0.011209 1.912083 m 0 0 0 
-1.941678 -0.029188 -2.657378 m 0 0 0 
H_empty
0.0
6
-4.401717 -0.003608 -2.400492 m 0 0 0 
-0.883826 -0.021617 -0.378427 m 0 0 0 
-5.690922 0.026935 -0.422718 m 0 0 0 
-4.443928 -0.830257 2.769566 m 0 0 0 
-4.426706 0.918618 2.753026 m 0 0 0 
-5.788397 0.050553 2.024728 m 0 0 0 
