Transformation
0.529176965773
32.125341805842  0.000000000000  0.000000000000
0.000000000000  34.015067794421  0.000000000000
0.000000000000  0.000000000000  202.360670649316
C  
1000  
Direct
0.628290000000  0.521869000000  0.009123000000  
0.641230000000  0.473544000000  0.020088000000  
0.511798000000  0.641644000000  0.020052000000  
0.628452000000  0.521465000000  0.030926000000  
0.632021000000  0.511831000000  0.045242000000  
0.483313000000  0.652404000000  0.051641000000  
0.643289000000  0.444906000000  0.066087000000  
0.631763000000  0.512579000000  0.072892000000  
0.631840000000  0.512356000000  0.086585000000  
0.643290000000  0.444676000000  0.093278000000  
0.643290000000  0.444444000000  0.106667000000  
0.631958000000  0.512015000000  0.113333000000  
0.631958000000  0.512015000000  0.126667000000  
0.643290000000  0.444444000000  0.133333000000  
0.643290000000  0.444444000000  0.146667000000  
0.631994000000  0.511911000000  0.153351000000  
0.631919000000  0.512128000000  0.166995000000  
0.483387000000  0.652381000000  0.173817000000  
0.643290000000  0.444701000000  0.188300000000  
0.631763000000  0.512580000000  0.194640000000  
0.555394000000  0.615945000000  0.009241000000  
0.598687000000  0.573470000000  0.013715000000  
0.598769000000  0.573365000000  0.026395000000  
0.556023000000  0.615473000000  0.030916000000  
0.547562000000  0.621544000000  0.045253000000  
0.598916000000  0.573174000000  0.052438000000  
0.598936000000  0.573148000000  0.066254000000  
0.547429000000  0.621636000000  0.072888000000  
0.547296000000  0.621726000000  0.086614000000  
0.598944000000  0.573138000000  0.093295000000  
0.599064000000  0.572982000000  0.106666000000  
0.547852000000  0.621346000000  0.113333000000  
0.547852000000  0.621346000000  0.126667000000  
0.599072000000  0.572971000000  0.133333000000  
0.599077000000  0.572965000000  0.146697000000  
0.547914000000  0.621303000000  0.153380000000  
0.548309000000  0.621031000000  0.167021000000  
0.598865000000  0.573241000000  0.173752000000  
0.598610000000  0.573570000000  0.187467000000  
0.546899000000  0.621996000000  0.194607000000  
0.400708000000  0.662857000000  0.009123000000  
0.453370000000  0.659547000000  0.020088000000  
0.244097000000  0.595234000000  0.020052000000  
0.401165000000  0.662878000000  0.030926000000  
0.411969000000  0.663107000000  0.045242000000  
0.224459000000  0.572974000000  0.051641000000  
0.482844000000  0.652547000000  0.066087000000  
0.411137000000  0.663106000000  0.072892000000  
0.411384000000  0.663107000000  0.086585000000  
0.483077000000  0.652476000000  0.093278000000  
0.483310000000  0.652405000000  0.106667000000  
0.411765000000  0.663107000000  0.113333000000  
0.411765000000  0.663107000000  0.126667000000  
0.483310000000  0.652405000000  0.133333000000  
0.483310000000  0.652405000000  0.146667000000  
0.411881000000  0.663107000000  0.153351000000  
0.411639000000  0.663107000000  0.166995000000  
0.224505000000  0.573033000000  0.173817000000  
0.483052000000  0.652484000000  0.188300000000  
0.411136000000  0.663106000000  0.194640000000  
0.283447000000  0.626452000000  0.009241000000  
0.339598000000  0.652213000000  0.013715000000  
0.339729000000  0.652254000000  0.026395000000  
0.284117000000  0.626871000000  0.030916000000  
0.275389000000  0.621147000000  0.045253000000  
0.339967000000  0.652327000000  0.052438000000  
0.339999000000  0.652337000000  0.066254000000  
0.275255000000  0.621056000000  0.072888000000  
0.275124000000  0.620965000000  0.086614000000  
0.340011000000  0.652341000000  0.093295000000  
0.340206000000  0.652401000000  0.106666000000  
0.275678000000  0.621346000000  0.113333000000  
0.275678000000  0.621346000000  0.126667000000  
0.340220000000  0.652405000000  0.133333000000  
0.340227000000  0.652407000000  0.146697000000  
0.275740000000  0.621389000000  0.153380000000  
0.276136000000  0.621660000000  0.167021000000  
0.339884000000  0.652302000000  0.173752000000  
0.339473000000  0.652174000000  0.187467000000  
0.274729000000  0.620692000000  0.194607000000  
0.188406000000  0.502007000000  0.009123000000  
0.208012000000  0.548285000000  0.020088000000  
0.208107000000  0.340438000000  0.020052000000  
0.188527000000  0.502423000000  0.030926000000  
0.191635000000  0.512198000000  0.045242000000  
0.224455000000  0.315921000000  0.051641000000  
0.224170000000  0.572597000000  0.066087000000  
0.191378000000  0.511451000000  0.072892000000  
0.191454000000  0.511673000000  0.086585000000  
0.224313000000  0.572784000000  0.093278000000  
0.224457000000  0.572971000000  0.106667000000  
0.191571000000  0.512015000000  0.113333000000  
0.191571000000  0.512015000000  0.126667000000  
0.224457000000  0.572971000000  0.133333000000  
0.224457000000  0.572971000000  0.146667000000  
0.191607000000  0.512119000000  0.153351000000  
0.191533000000  0.511902000000  0.166995000000  
0.224409000000  0.315980000000  0.173817000000  
0.224298000000  0.572764000000  0.188300000000  
0.191378000000  0.511450000000  0.194640000000  
0.188831000000  0.385431000000  0.009241000000  
0.180241000000  0.443827000000  0.013715000000  
0.180240000000  0.443957000000  0.026395000000  
0.188616000000  0.386161000000  0.030916000000  
0.191682000000  0.376553000000  0.045253000000  
0.180240000000  0.444194000000  0.052438000000  
0.180240000000  0.444226000000  0.066254000000  
0.191733000000  0.376405000000  0.072888000000  
0.191784000000  0.376258000000  0.086614000000  
0.180240000000  0.444238000000  0.093295000000  
0.180240000000  0.444431000000  0.106666000000  
0.191571000000  0.376874000000  0.113333000000  
0.191571000000  0.376874000000  0.126667000000  
0.180240000000  0.444444000000  0.133333000000  
0.180240000000  0.444452000000  0.146697000000  
0.191548000000  0.376943000000  0.153380000000  
0.191397000000  0.377383000000  0.167021000000  
0.180240000000  0.444111000000  0.173752000000  
0.180241000000  0.443703000000  0.187467000000  
0.191937000000  0.375820000000  0.194607000000  
0.284778000000  0.261607000000  0.009123000000  
0.244234000000  0.293519000000  0.020088000000  
0.453565000000  0.229375000000  0.020052000000  
0.284396000000  0.261844000000  0.030926000000  
0.275513000000  0.267656000000  0.045242000000  
0.483306000000  0.236483000000  0.051641000000  
0.224745000000  0.315544000000  0.066087000000  
0.276186000000  0.267195000000  0.072892000000  
0.275986000000  0.267332000000  0.086585000000  
0.224601000000  0.315731000000  0.093278000000  
0.224457000000  0.315918000000  0.106667000000  
0.275678000000  0.267543000000  0.113333000000  
0.275678000000  0.267543000000  0.126667000000  
0.224457000000  0.315918000000  0.133333000000  
0.224457000000  0.315918000000  0.146667000000  
0.275584000000  0.267607000000  0.153351000000  
0.275779000000  0.267473000000  0.166995000000  
0.483233000000  0.236460000000  0.173817000000  
0.224617000000  0.315711000000  0.188300000000  
0.276187000000  0.267194000000  0.194640000000  
0.402301000000  0.225965000000  0.009241000000  
0.340842000000  0.236294000000  0.013715000000  
0.340711000000  0.236334000000  0.026395000000  
0.401499000000  0.225997000000  0.030916000000  
0.412122000000  0.225782000000  0.045253000000  
0.340472000000  0.236407000000  0.052438000000  
0.340440000000  0.236417000000  0.066254000000  
0.412287000000  0.225783000000  0.072888000000  
0.412450000000  0.225783000000  0.086614000000  
0.340428000000  0.236420000000  0.093295000000  
0.340233000000  0.236480000000  0.106666000000  
0.411765000000  0.225782000000  0.113333000000  
0.411765000000  0.225782000000  0.126667000000  
0.340220000000  0.236484000000  0.133333000000  
0.340212000000  0.236486000000  0.146697000000  
0.411688000000  0.225782000000  0.153380000000  
0.411199000000  0.225783000000  0.167021000000  
0.340555000000  0.236381000000  0.173752000000  
0.340967000000  0.236256000000  0.187467000000  
0.412939000000  0.225785000000  0.194607000000  
0.556641000000  0.273882000000  0.009123000000  
0.511977000000  0.247326000000  0.020088000000  
0.641257000000  0.415531000000  0.020052000000  
0.556284000000  0.273612000000  0.030926000000  
0.547686000000  0.267430000000  0.045242000000  
0.643290000000  0.444441000000  0.051641000000  
0.483775000000  0.236627000000  0.066087000000  
0.548359000000  0.267892000000  0.072892000000  
0.548159000000  0.267754000000  0.086585000000  
0.483543000000  0.236556000000  0.093278000000  
0.483310000000  0.236484000000  0.106667000000  
0.547852000000  0.267543000000  0.113333000000  
0.547852000000  0.267543000000  0.126667000000  
0.483310000000  0.236484000000  0.133333000000  
0.483310000000  0.236484000000  0.146667000000  
0.547758000000  0.267478000000  0.153351000000  
0.547953000000  0.267613000000  0.166995000000  
0.643290000000  0.444368000000  0.173817000000  
0.483568000000  0.236563000000  0.188300000000  
0.548360000000  0.267893000000  0.194640000000  
0.628850000000  0.368430000000  0.009241000000  
0.599456000000  0.316418000000  0.013715000000  
0.599375000000  0.316312000000  0.026395000000  
0.628569000000  0.367720000000  0.030916000000  
0.632068000000  0.377195000000  0.045253000000  
0.599228000000  0.316121000000  0.052438000000  
0.599208000000  0.316095000000  0.066254000000  
0.632119000000  0.377344000000  0.072888000000  
0.632169000000  0.377490000000  0.086614000000  
0.599201000000  0.316085000000  0.093295000000  
0.599081000000  0.315929000000  0.106666000000  
0.631958000000  0.376874000000  0.113333000000  
0.631958000000  0.376874000000  0.126667000000  
0.599072000000  0.315918000000  0.133333000000  
0.599068000000  0.315912000000  0.146697000000  
0.631934000000  0.376805000000  0.153380000000  
0.631782000000  0.376366000000  0.167021000000  
0.599280000000  0.316188000000  0.173752000000  
0.599533000000  0.316519000000  0.187467000000  
0.632318000000  0.377930000000  0.194607000000  
0.628290000000  0.521869000000  0.209123000000  
0.641230000000  0.473544000000  0.220088000000  
0.511798000000  0.641644000000  0.220052000000  
0.628452000000  0.521465000000  0.230926000000  
0.632021000000  0.511831000000  0.245242000000  
0.483313000000  0.652404000000  0.251641000000  
0.643289000000  0.444906000000  0.266087000000  
0.631763000000  0.512579000000  0.272892000000  
0.631840000000  0.512356000000  0.286585000000  
0.643290000000  0.444676000000  0.293278000000  
0.643290000000  0.444444000000  0.306667000000  
0.631958000000  0.512015000000  0.313333000000  
0.631958000000  0.512015000000  0.326667000000  
0.643290000000  0.444444000000  0.333333000000  
0.643290000000  0.444444000000  0.346667000000  
0.631994000000  0.511911000000  0.353351000000  
0.631919000000  0.512128000000  0.366995000000  
0.483387000000  0.652381000000  0.373817000000  
0.643290000000  0.444701000000  0.388300000000  
0.631763000000  0.512580000000  0.394640000000  
0.555394000000  0.615945000000  0.209241000000  
0.598687000000  0.573470000000  0.213715000000  
0.598769000000  0.573365000000  0.226395000000  
0.556023000000  0.615473000000  0.230916000000  
0.547562000000  0.621544000000  0.245253000000  
0.598916000000  0.573174000000  0.252438000000  
0.598936000000  0.573148000000  0.266254000000  
0.547429000000  0.621636000000  0.272888000000  
0.547296000000  0.621726000000  0.286614000000  
0.598944000000  0.573138000000  0.293295000000  
0.599064000000  0.572982000000  0.306666000000  
0.547852000000  0.621346000000  0.313333000000  
0.547852000000  0.621346000000  0.326667000000  
0.599072000000  0.572971000000  0.333333000000  
0.599077000000  0.572965000000  0.346697000000  
0.547914000000  0.621303000000  0.353380000000  
0.548309000000  0.621031000000  0.367021000000  
0.598865000000  0.573241000000  0.373752000000  
0.598610000000  0.573570000000  0.387467000000  
0.546899000000  0.621996000000  0.394607000000  
0.400708000000  0.662857000000  0.209123000000  
0.453370000000  0.659547000000  0.220088000000  
0.244097000000  0.595234000000  0.220052000000  
0.401165000000  0.662878000000  0.230926000000  
0.411969000000  0.663107000000  0.245242000000  
0.224459000000  0.572974000000  0.251641000000  
0.482844000000  0.652547000000  0.266087000000  
0.411137000000  0.663106000000  0.272892000000  
0.411384000000  0.663107000000  0.286585000000  
0.483077000000  0.652476000000  0.293278000000  
0.483310000000  0.652405000000  0.306667000000  
0.411765000000  0.663107000000  0.313333000000  
0.411765000000  0.663107000000  0.326667000000  
0.483310000000  0.652405000000  0.333333000000  
0.483310000000  0.652405000000  0.346667000000  
0.411881000000  0.663107000000  0.353351000000  
0.411639000000  0.663107000000  0.366995000000  
0.224505000000  0.573033000000  0.373817000000  
0.483052000000  0.652484000000  0.388300000000  
0.411136000000  0.663106000000  0.394640000000  
0.283447000000  0.626452000000  0.209241000000  
0.339598000000  0.652213000000  0.213715000000  
0.339729000000  0.652254000000  0.226395000000  
0.284117000000  0.626871000000  0.230916000000  
0.275389000000  0.621147000000  0.245253000000  
0.339967000000  0.652327000000  0.252438000000  
0.339999000000  0.652337000000  0.266254000000  
0.275255000000  0.621056000000  0.272888000000  
0.275124000000  0.620965000000  0.286614000000  
0.340011000000  0.652341000000  0.293295000000  
0.340206000000  0.652401000000  0.306666000000  
0.275678000000  0.621346000000  0.313333000000  
0.275678000000  0.621346000000  0.326667000000  
0.340220000000  0.652405000000  0.333333000000  
0.340227000000  0.652407000000  0.346697000000  
0.275740000000  0.621389000000  0.353380000000  
0.276136000000  0.621660000000  0.367021000000  
0.339884000000  0.652302000000  0.373752000000  
0.339473000000  0.652174000000  0.387467000000  
0.274729000000  0.620692000000  0.394607000000  
0.188406000000  0.502007000000  0.209123000000  
0.208012000000  0.548285000000  0.220088000000  
0.208107000000  0.340438000000  0.220052000000  
0.188527000000  0.502423000000  0.230926000000  
0.191635000000  0.512198000000  0.245242000000  
0.224455000000  0.315921000000  0.251641000000  
0.224170000000  0.572597000000  0.266087000000  
0.191378000000  0.511451000000  0.272892000000  
0.191454000000  0.511673000000  0.286585000000  
0.224313000000  0.572784000000  0.293278000000  
0.224457000000  0.572971000000  0.306667000000  
0.191571000000  0.512015000000  0.313333000000  
0.191571000000  0.512015000000  0.326667000000  
0.224457000000  0.572971000000  0.333333000000  
0.224457000000  0.572971000000  0.346667000000  
0.191607000000  0.512119000000  0.353351000000  
0.191533000000  0.511902000000  0.366995000000  
0.224409000000  0.315980000000  0.373817000000  
0.224298000000  0.572764000000  0.388300000000  
0.191378000000  0.511450000000  0.394640000000  
0.188831000000  0.385431000000  0.209241000000  
0.180241000000  0.443827000000  0.213715000000  
0.180240000000  0.443957000000  0.226395000000  
0.188616000000  0.386161000000  0.230916000000  
0.191682000000  0.376553000000  0.245253000000  
0.180240000000  0.444194000000  0.252438000000  
0.180240000000  0.444226000000  0.266254000000  
0.191733000000  0.376405000000  0.272888000000  
0.191784000000  0.376258000000  0.286614000000  
0.180240000000  0.444238000000  0.293295000000  
0.180240000000  0.444431000000  0.306666000000  
0.191571000000  0.376874000000  0.313333000000  
0.191571000000  0.376874000000  0.326667000000  
0.180240000000  0.444444000000  0.333333000000  
0.180240000000  0.444452000000  0.346697000000  
0.191548000000  0.376943000000  0.353380000000  
0.191397000000  0.377383000000  0.367021000000  
0.180240000000  0.444111000000  0.373752000000  
0.180241000000  0.443703000000  0.387467000000  
0.191937000000  0.375820000000  0.394607000000  
0.284778000000  0.261607000000  0.209123000000  
0.244234000000  0.293519000000  0.220088000000  
0.453565000000  0.229375000000  0.220052000000  
0.284396000000  0.261844000000  0.230926000000  
0.275513000000  0.267656000000  0.245242000000  
0.483306000000  0.236483000000  0.251641000000  
0.224745000000  0.315544000000  0.266087000000  
0.276186000000  0.267195000000  0.272892000000  
0.275986000000  0.267332000000  0.286585000000  
0.224601000000  0.315731000000  0.293278000000  
0.224457000000  0.315918000000  0.306667000000  
0.275678000000  0.267543000000  0.313333000000  
0.275678000000  0.267543000000  0.326667000000  
0.224457000000  0.315918000000  0.333333000000  
0.224457000000  0.315918000000  0.346667000000  
0.275584000000  0.267607000000  0.353351000000  
0.275779000000  0.267473000000  0.366995000000  
0.483233000000  0.236460000000  0.373817000000  
0.224617000000  0.315711000000  0.388300000000  
0.276187000000  0.267194000000  0.394640000000  
0.402301000000  0.225965000000  0.209241000000  
0.340842000000  0.236294000000  0.213715000000  
0.340711000000  0.236334000000  0.226395000000  
0.401499000000  0.225997000000  0.230916000000  
0.412122000000  0.225782000000  0.245253000000  
0.340472000000  0.236407000000  0.252438000000  
0.340440000000  0.236417000000  0.266254000000  
0.412287000000  0.225783000000  0.272888000000  
0.412450000000  0.225783000000  0.286614000000  
0.340428000000  0.236420000000  0.293295000000  
0.340233000000  0.236480000000  0.306666000000  
0.411765000000  0.225782000000  0.313333000000  
0.411765000000  0.225782000000  0.326667000000  
0.340220000000  0.236484000000  0.333333000000  
0.340212000000  0.236486000000  0.346697000000  
0.411688000000  0.225782000000  0.353380000000  
0.411199000000  0.225783000000  0.367021000000  
0.340555000000  0.236381000000  0.373752000000  
0.340967000000  0.236256000000  0.387467000000  
0.412939000000  0.225785000000  0.394607000000  
0.556641000000  0.273882000000  0.209123000000  
0.511977000000  0.247326000000  0.220088000000  
0.641257000000  0.415531000000  0.220052000000  
0.556284000000  0.273612000000  0.230926000000  
0.547686000000  0.267430000000  0.245242000000  
0.643290000000  0.444441000000  0.251641000000  
0.483775000000  0.236627000000  0.266087000000  
0.548359000000  0.267892000000  0.272892000000  
0.548159000000  0.267754000000  0.286585000000  
0.483543000000  0.236556000000  0.293278000000  
0.483310000000  0.236484000000  0.306667000000  
0.547852000000  0.267543000000  0.313333000000  
0.547852000000  0.267543000000  0.326667000000  
0.483310000000  0.236484000000  0.333333000000  
0.483310000000  0.236484000000  0.346667000000  
0.547758000000  0.267478000000  0.353351000000  
0.547953000000  0.267613000000  0.366995000000  
0.643290000000  0.444368000000  0.373817000000  
0.483568000000  0.236563000000  0.388300000000  
0.548360000000  0.267893000000  0.394640000000  
0.628850000000  0.368430000000  0.209241000000  
0.599456000000  0.316418000000  0.213715000000  
0.599375000000  0.316312000000  0.226395000000  
0.628569000000  0.367720000000  0.230916000000  
0.632068000000  0.377195000000  0.245253000000  
0.599228000000  0.316121000000  0.252438000000  
0.599208000000  0.316095000000  0.266254000000  
0.632119000000  0.377344000000  0.272888000000  
0.632169000000  0.377490000000  0.286614000000  
0.599201000000  0.316085000000  0.293295000000  
0.599081000000  0.315929000000  0.306666000000  
0.631958000000  0.376874000000  0.313333000000  
0.631958000000  0.376874000000  0.326667000000  
0.599072000000  0.315918000000  0.333333000000  
0.599068000000  0.315912000000  0.346697000000  
0.631934000000  0.376805000000  0.353380000000  
0.631782000000  0.376366000000  0.367021000000  
0.599280000000  0.316188000000  0.373752000000  
0.599533000000  0.316519000000  0.387467000000  
0.632318000000  0.377930000000  0.394607000000  
0.628290000000  0.521869000000  0.409123000000  
0.641230000000  0.473544000000  0.420088000000  
0.511798000000  0.641644000000  0.420052000000  
0.628452000000  0.521465000000  0.430926000000  
0.632021000000  0.511831000000  0.445242000000  
0.483313000000  0.652404000000  0.451641000000  
0.643289000000  0.444906000000  0.466087000000  
0.631763000000  0.512579000000  0.472892000000  
0.631840000000  0.512356000000  0.486585000000  
0.643290000000  0.444676000000  0.493278000000  
0.643290000000  0.444444000000  0.506667000000  
0.631958000000  0.512015000000  0.513333000000  
0.631958000000  0.512015000000  0.526667000000  
0.643290000000  0.444444000000  0.533333000000  
0.643290000000  0.444444000000  0.546667000000  
0.631994000000  0.511911000000  0.553351000000  
0.631919000000  0.512128000000  0.566995000000  
0.483387000000  0.652381000000  0.573817000000  
0.643290000000  0.444701000000  0.588300000000  
0.631763000000  0.512580000000  0.594640000000  
0.555394000000  0.615945000000  0.409241000000  
0.598687000000  0.573470000000  0.413715000000  
0.598769000000  0.573365000000  0.426395000000  
0.556023000000  0.615473000000  0.430916000000  
0.547562000000  0.621544000000  0.445253000000  
0.598916000000  0.573174000000  0.452438000000  
0.598936000000  0.573148000000  0.466254000000  
0.547429000000  0.621636000000  0.472888000000  
0.547296000000  0.621726000000  0.486614000000  
0.598944000000  0.573138000000  0.493295000000  
0.599064000000  0.572982000000  0.506666000000  
0.547852000000  0.621346000000  0.513333000000  
0.547852000000  0.621346000000  0.526667000000  
0.599072000000  0.572971000000  0.533333000000  
0.599077000000  0.572965000000  0.546697000000  
0.547914000000  0.621303000000  0.553380000000  
0.548309000000  0.621031000000  0.567021000000  
0.598865000000  0.573241000000  0.573752000000  
0.598610000000  0.573570000000  0.587467000000  
0.546899000000  0.621996000000  0.594607000000  
0.400708000000  0.662857000000  0.409123000000  
0.453370000000  0.659547000000  0.420088000000  
0.244097000000  0.595234000000  0.420052000000  
0.401165000000  0.662878000000  0.430926000000  
0.411969000000  0.663107000000  0.445242000000  
0.224459000000  0.572974000000  0.451641000000  
0.482844000000  0.652547000000  0.466087000000  
0.411137000000  0.663106000000  0.472892000000  
0.411384000000  0.663107000000  0.486585000000  
0.483077000000  0.652476000000  0.493278000000  
0.483310000000  0.652405000000  0.506667000000  
0.411765000000  0.663107000000  0.513333000000  
0.411765000000  0.663107000000  0.526667000000  
0.483310000000  0.652405000000  0.533333000000  
0.483310000000  0.652405000000  0.546667000000  
0.411881000000  0.663107000000  0.553351000000  
0.411639000000  0.663107000000  0.566995000000  
0.224505000000  0.573033000000  0.573817000000  
0.483052000000  0.652484000000  0.588300000000  
0.411136000000  0.663106000000  0.594640000000  
0.283447000000  0.626452000000  0.409241000000  
0.339598000000  0.652213000000  0.413715000000  
0.339729000000  0.652254000000  0.426395000000  
0.284117000000  0.626871000000  0.430916000000  
0.275389000000  0.621147000000  0.445253000000  
0.339967000000  0.652327000000  0.452438000000  
0.339999000000  0.652337000000  0.466254000000  
0.275255000000  0.621056000000  0.472888000000  
0.275124000000  0.620965000000  0.486614000000  
0.340011000000  0.652341000000  0.493295000000  
0.340206000000  0.652401000000  0.506666000000  
0.275678000000  0.621346000000  0.513333000000  
0.275678000000  0.621346000000  0.526667000000  
0.340220000000  0.652405000000  0.533333000000  
0.340227000000  0.652407000000  0.546697000000  
0.275740000000  0.621389000000  0.553380000000  
0.276136000000  0.621660000000  0.567021000000  
0.339884000000  0.652302000000  0.573752000000  
0.339473000000  0.652174000000  0.587467000000  
0.274729000000  0.620692000000  0.594607000000  
0.188406000000  0.502007000000  0.409123000000  
0.208012000000  0.548285000000  0.420088000000  
0.208107000000  0.340438000000  0.420052000000  
0.188527000000  0.502423000000  0.430926000000  
0.191635000000  0.512198000000  0.445242000000  
0.224455000000  0.315921000000  0.451641000000  
0.224170000000  0.572597000000  0.466087000000  
0.191378000000  0.511451000000  0.472892000000  
0.191454000000  0.511673000000  0.486585000000  
0.224313000000  0.572784000000  0.493278000000  
0.224457000000  0.572971000000  0.506667000000  
0.191571000000  0.512015000000  0.513333000000  
0.191571000000  0.512015000000  0.526667000000  
0.224457000000  0.572971000000  0.533333000000  
0.224457000000  0.572971000000  0.546667000000  
0.191607000000  0.512119000000  0.553351000000  
0.191533000000  0.511902000000  0.566995000000  
0.224409000000  0.315980000000  0.573817000000  
0.224298000000  0.572764000000  0.588300000000  
0.191378000000  0.511450000000  0.594640000000  
0.188831000000  0.385431000000  0.409241000000  
0.180241000000  0.443827000000  0.413715000000  
0.180240000000  0.443957000000  0.426395000000  
0.188616000000  0.386161000000  0.430916000000  
0.191682000000  0.376553000000  0.445253000000  
0.180240000000  0.444194000000  0.452438000000  
0.180240000000  0.444226000000  0.466254000000  
0.191733000000  0.376405000000  0.472888000000  
0.191784000000  0.376258000000  0.486614000000  
0.180240000000  0.444238000000  0.493295000000  
0.180240000000  0.444431000000  0.506666000000  
0.191571000000  0.376874000000  0.513333000000  
0.191571000000  0.376874000000  0.526667000000  
0.180240000000  0.444444000000  0.533333000000  
0.180240000000  0.444452000000  0.546697000000  
0.191548000000  0.376943000000  0.553380000000  
0.191397000000  0.377383000000  0.567021000000  
0.180240000000  0.444111000000  0.573752000000  
0.180241000000  0.443703000000  0.587467000000  
0.191937000000  0.375820000000  0.594607000000  
0.284778000000  0.261607000000  0.409123000000  
0.244234000000  0.293519000000  0.420088000000  
0.453565000000  0.229375000000  0.420052000000  
0.284396000000  0.261844000000  0.430926000000  
0.275513000000  0.267656000000  0.445242000000  
0.483306000000  0.236483000000  0.451641000000  
0.224745000000  0.315544000000  0.466087000000  
0.276186000000  0.267195000000  0.472892000000  
0.275986000000  0.267332000000  0.486585000000  
0.224601000000  0.315731000000  0.493278000000  
0.224457000000  0.315918000000  0.506667000000  
0.275678000000  0.267543000000  0.513333000000  
0.275678000000  0.267543000000  0.526667000000  
0.224457000000  0.315918000000  0.533333000000  
0.224457000000  0.315918000000  0.546667000000  
0.275584000000  0.267607000000  0.553351000000  
0.275779000000  0.267473000000  0.566995000000  
0.483233000000  0.236460000000  0.573817000000  
0.224617000000  0.315711000000  0.588300000000  
0.276187000000  0.267194000000  0.594640000000  
0.402301000000  0.225965000000  0.409241000000  
0.340842000000  0.236294000000  0.413715000000  
0.340711000000  0.236334000000  0.426395000000  
0.401499000000  0.225997000000  0.430916000000  
0.412122000000  0.225782000000  0.445253000000  
0.340472000000  0.236407000000  0.452438000000  
0.340440000000  0.236417000000  0.466254000000  
0.412287000000  0.225783000000  0.472888000000  
0.412450000000  0.225783000000  0.486614000000  
0.340428000000  0.236420000000  0.493295000000  
0.340233000000  0.236480000000  0.506666000000  
0.411765000000  0.225782000000  0.513333000000  
0.411765000000  0.225782000000  0.526667000000  
0.340220000000  0.236484000000  0.533333000000  
0.340212000000  0.236486000000  0.546697000000  
0.411688000000  0.225782000000  0.553380000000  
0.411199000000  0.225783000000  0.567021000000  
0.340555000000  0.236381000000  0.573752000000  
0.340967000000  0.236256000000  0.587467000000  
0.412939000000  0.225785000000  0.594607000000  
0.556641000000  0.273882000000  0.409123000000  
0.511977000000  0.247326000000  0.420088000000  
0.641257000000  0.415531000000  0.420052000000  
0.556284000000  0.273612000000  0.430926000000  
0.547686000000  0.267430000000  0.445242000000  
0.643290000000  0.444441000000  0.451641000000  
0.483775000000  0.236627000000  0.466087000000  
0.548359000000  0.267892000000  0.472892000000  
0.548159000000  0.267754000000  0.486585000000  
0.483543000000  0.236556000000  0.493278000000  
0.483310000000  0.236484000000  0.506667000000  
0.547852000000  0.267543000000  0.513333000000  
0.547852000000  0.267543000000  0.526667000000  
0.483310000000  0.236484000000  0.533333000000  
0.483310000000  0.236484000000  0.546667000000  
0.547758000000  0.267478000000  0.553351000000  
0.547953000000  0.267613000000  0.566995000000  
0.643290000000  0.444368000000  0.573817000000  
0.483568000000  0.236563000000  0.588300000000  
0.548360000000  0.267893000000  0.594640000000  
0.628850000000  0.368430000000  0.409241000000  
0.599456000000  0.316418000000  0.413715000000  
0.599375000000  0.316312000000  0.426395000000  
0.628569000000  0.367720000000  0.430916000000  
0.632068000000  0.377195000000  0.445253000000  
0.599228000000  0.316121000000  0.452438000000  
0.599208000000  0.316095000000  0.466254000000  
0.632119000000  0.377344000000  0.472888000000  
0.632169000000  0.377490000000  0.486614000000  
0.599201000000  0.316085000000  0.493295000000  
0.599081000000  0.315929000000  0.506666000000  
0.631958000000  0.376874000000  0.513333000000  
0.631958000000  0.376874000000  0.526667000000  
0.599072000000  0.315918000000  0.533333000000  
0.599068000000  0.315912000000  0.546697000000  
0.631934000000  0.376805000000  0.553380000000  
0.631782000000  0.376366000000  0.567021000000  
0.599280000000  0.316188000000  0.573752000000  
0.599533000000  0.316519000000  0.587467000000  
0.632318000000  0.377930000000  0.594607000000  
0.628290000000  0.521869000000  0.609123000000  
0.641230000000  0.473544000000  0.620088000000  
0.511798000000  0.641644000000  0.620052000000  
0.628452000000  0.521465000000  0.630926000000  
0.632021000000  0.511831000000  0.645242000000  
0.483313000000  0.652404000000  0.651641000000  
0.643289000000  0.444906000000  0.666087000000  
0.631763000000  0.512579000000  0.672892000000  