ATOMIC_SPECIES
C 12.011 C_ONCV_PBE-1.0.upf

NUMERICAL_ORBITAL
C_gga_8au_60Ry_2s2p1d.orb

LATTICE_CONSTANT
1

LATTICE_VECTORS
32.1253418058417  0.00000000000000  0.000000000000000
0.00000000000000  34.0150677944206  0.000000000000000
0.00000000000000  0.00000000000000  202.3606706493158

ATOMIC_POSITIONS
Direct

C
0
1000
0.6282900000  0.5218690000  0.0091230000  1  1  1
0.6412300000  0.4735440000  0.0200880000  1  1  1
0.5117980000  0.6416440000  0.0200520000  1  1  1
0.6284520000  0.5214650000  0.0309260000  1  1  1
0.6320210000  0.5118310000  0.0452420000  1  1  1
0.4833130000  0.6524040000  0.0516410000  1  1  1
0.6432890000  0.4449060000  0.0660870000  1  1  1
0.6317630000  0.5125790000  0.0728920000  1  1  1
0.6318400000  0.5123560000  0.0865850000  1  1  1
0.6432900000  0.4446760000  0.0932780000  1  1  1
0.6432900000  0.4444440000  0.1066670000  1  1  1
0.6319580000  0.5120150000  0.1133330000  1  1  1
0.6319580000  0.5120150000  0.1266670000  1  1  1
0.6432900000  0.4444440000  0.1333330000  1  1  1
0.6432900000  0.4444440000  0.1466670000  1  1  1
0.6319940000  0.5119110000  0.1533510000  1  1  1
0.6319190000  0.5121280000  0.1669950000  1  1  1
0.4833870000  0.6523810000  0.1738170000  1  1  1
0.6432900000  0.4447010000  0.1883000000  1  1  1
0.6317630000  0.5125800000  0.1946400000  1  1  1
0.5553940000  0.6159450000  0.0092410000  1  1  1
0.5986870000  0.5734700000  0.0137150000  1  1  1
0.5987690000  0.5733650000  0.0263950000  1  1  1
0.5560230000  0.6154730000  0.0309160000  1  1  1
0.5475620000  0.6215440000  0.0452530000  1  1  1
0.5989160000  0.5731740000  0.0524380000  1  1  1
0.5989360000  0.5731480000  0.0662540000  1  1  1
0.5474290000  0.6216360000  0.0728880000  1  1  1
0.5472960000  0.6217260000  0.0866140000  1  1  1
0.5989440000  0.5731380000  0.0932950000  1  1  1
0.5990640000  0.5729820000  0.1066660000  1  1  1
0.5478520000  0.6213460000  0.1133330000  1  1  1
0.5478520000  0.6213460000  0.1266670000  1  1  1
0.5990720000  0.5729710000  0.1333330000  1  1  1
0.5990770000  0.5729650000  0.1466970000  1  1  1
0.5479140000  0.6213030000  0.1533800000  1  1  1
0.5483090000  0.6210310000  0.1670210000  1  1  1
0.5988650000  0.5732410000  0.1737520000  1  1  1
0.5986100000  0.5735700000  0.1874670000  1  1  1
0.5468990000  0.6219960000  0.1946070000  1  1  1
0.4007080000  0.6628570000  0.0091230000  1  1  1
0.4533700000  0.6595470000  0.0200880000  1  1  1
0.2440970000  0.5952340000  0.0200520000  1  1  1
0.4011650000  0.6628780000  0.0309260000  1  1  1
0.4119690000  0.6631070000  0.0452420000  1  1  1
0.2244590000  0.5729740000  0.0516410000  1  1  1
0.4828440000  0.6525470000  0.0660870000  1  1  1
0.4111370000  0.6631060000  0.0728920000  1  1  1
0.4113840000  0.6631070000  0.0865850000  1  1  1
0.4830770000  0.6524760000  0.0932780000  1  1  1
0.4833100000  0.6524050000  0.1066670000  1  1  1
0.4117650000  0.6631070000  0.1133330000  1  1  1
0.4117650000  0.6631070000  0.1266670000  1  1  1
0.4833100000  0.6524050000  0.1333330000  1  1  1
0.4833100000  0.6524050000  0.1466670000  1  1  1
0.4118810000  0.6631070000  0.1533510000  1  1  1
0.4116390000  0.6631070000  0.1669950000  1  1  1
0.2245050000  0.5730330000  0.1738170000  1  1  1
0.4830520000  0.6524840000  0.1883000000  1  1  1
0.4111360000  0.6631060000  0.1946400000  1  1  1
0.2834470000  0.6264520000  0.0092410000  1  1  1
0.3395980000  0.6522130000  0.0137150000  1  1  1
0.3397290000  0.6522540000  0.0263950000  1  1  1
0.2841170000  0.6268710000  0.0309160000  1  1  1
0.2753890000  0.6211470000  0.0452530000  1  1  1
0.3399670000  0.6523270000  0.0524380000  1  1  1
0.3399990000  0.6523370000  0.0662540000  1  1  1
0.2752550000  0.6210560000  0.0728880000  1  1  1
0.2751240000  0.6209650000  0.0866140000  1  1  1
0.3400110000  0.6523410000  0.0932950000  1  1  1
0.3402060000  0.6524010000  0.1066660000  1  1  1
0.2756780000  0.6213460000  0.1133330000  1  1  1
0.2756780000  0.6213460000  0.1266670000  1  1  1
0.3402200000  0.6524050000  0.1333330000  1  1  1
0.3402270000  0.6524070000  0.1466970000  1  1  1
0.2757400000  0.6213890000  0.1533800000  1  1  1
0.2761360000  0.6216600000  0.1670210000  1  1  1
0.3398840000  0.6523020000  0.1737520000  1  1  1
0.3394730000  0.6521740000  0.1874670000  1  1  1
0.2747290000  0.6206920000  0.1946070000  1  1  1
0.1884060000  0.5020070000  0.0091230000  1  1  1
0.2080120000  0.5482850000  0.0200880000  1  1  1
0.2081070000  0.3404380000  0.0200520000  1  1  1
0.1885270000  0.5024230000  0.0309260000  1  1  1
0.1916350000  0.5121980000  0.0452420000  1  1  1
0.2244550000  0.3159210000  0.0516410000  1  1  1
0.2241700000  0.5725970000  0.0660870000  1  1  1
0.1913780000  0.5114510000  0.0728920000  1  1  1
0.1914540000  0.5116730000  0.0865850000  1  1  1
0.2243130000  0.5727840000  0.0932780000  1  1  1
0.2244570000  0.5729710000  0.1066670000  1  1  1
0.1915710000  0.5120150000  0.1133330000  1  1  1
0.1915710000  0.5120150000  0.1266670000  1  1  1
0.2244570000  0.5729710000  0.1333330000  1  1  1
0.2244570000  0.5729710000  0.1466670000  1  1  1
0.1916070000  0.5121190000  0.1533510000  1  1  1
0.1915330000  0.5119020000  0.1669950000  1  1  1
0.2244090000  0.3159800000  0.1738170000  1  1  1
0.2242980000  0.5727640000  0.1883000000  1  1  1
0.1913780000  0.5114500000  0.1946400000  1  1  1
0.1888310000  0.3854310000  0.0092410000  1  1  1
0.1802410000  0.4438270000  0.0137150000  1  1  1
0.1802400000  0.4439570000  0.0263950000  1  1  1
0.1886160000  0.3861610000  0.0309160000  1  1  1
0.1916820000  0.3765530000  0.0452530000  1  1  1
0.1802400000  0.4441940000  0.0524380000  1  1  1
0.1802400000  0.4442260000  0.0662540000  1  1  1
0.1917330000  0.3764050000  0.0728880000  1  1  1
0.1917840000  0.3762580000  0.0866140000  1  1  1
0.1802400000  0.4442380000  0.0932950000  1  1  1
0.1802400000  0.4444310000  0.1066660000  1  1  1
0.1915710000  0.3768740000  0.1133330000  1  1  1
0.1915710000  0.3768740000  0.1266670000  1  1  1
0.1802400000  0.4444440000  0.1333330000  1  1  1
0.1802400000  0.4444520000  0.1466970000  1  1  1
0.1915480000  0.3769430000  0.1533800000  1  1  1
0.1913970000  0.3773830000  0.1670210000  1  1  1
0.1802400000  0.4441110000  0.1737520000  1  1  1
0.1802410000  0.4437030000  0.1874670000  1  1  1
0.1919370000  0.3758200000  0.1946070000  1  1  1
0.2847780000  0.2616070000  0.0091230000  1  1  1
0.2442340000  0.2935190000  0.0200880000  1  1  1
0.4535650000  0.2293750000  0.0200520000  1  1  1
0.2843960000  0.2618440000  0.0309260000  1  1  1
0.2755130000  0.2676560000  0.0452420000  1  1  1
0.4833060000  0.2364830000  0.0516410000  1  1  1
0.2247450000  0.3155440000  0.0660870000  1  1  1
0.2761860000  0.2671950000  0.0728920000  1  1  1
0.2759860000  0.2673320000  0.0865850000  1  1  1
0.2246010000  0.3157310000  0.0932780000  1  1  1
0.2244570000  0.3159180000  0.1066670000  1  1  1
0.2756780000  0.2675430000  0.1133330000  1  1  1
0.2756780000  0.2675430000  0.1266670000  1  1  1
0.2244570000  0.3159180000  0.1333330000  1  1  1
0.2244570000  0.3159180000  0.1466670000  1  1  1
0.2755840000  0.2676070000  0.1533510000  1  1  1
0.2757790000  0.2674730000  0.1669950000  1  1  1
0.4832330000  0.2364600000  0.1738170000  1  1  1
0.2246170000  0.3157110000  0.1883000000  1  1  1
0.2761870000  0.2671940000  0.1946400000  1  1  1
0.4023010000  0.2259650000  0.0092410000  1  1  1
0.3408420000  0.2362940000  0.0137150000  1  1  1
0.3407110000  0.2363340000  0.0263950000  1  1  1
0.4014990000  0.2259970000  0.0309160000  1  1  1
0.4121220000  0.2257820000  0.0452530000  1  1  1
0.3404720000  0.2364070000  0.0524380000  1  1  1
0.3404400000  0.2364170000  0.0662540000  1  1  1
0.4122870000  0.2257830000  0.0728880000  1  1  1
0.4124500000  0.2257830000  0.0866140000  1  1  1
0.3404280000  0.2364200000  0.0932950000  1  1  1
0.3402330000  0.2364800000  0.1066660000  1  1  1
0.4117650000  0.2257820000  0.1133330000  1  1  1
0.4117650000  0.2257820000  0.1266670000  1  1  1
0.3402200000  0.2364840000  0.1333330000  1  1  1
0.3402120000  0.2364860000  0.1466970000  1  1  1
0.4116880000  0.2257820000  0.1533800000  1  1  1
0.4111990000  0.2257830000  0.1670210000  1  1  1
0.3405550000  0.2363810000  0.1737520000  1  1  1
0.3409670000  0.2362560000  0.1874670000  1  1  1
0.4129390000  0.2257850000  0.1946070000  1  1  1
0.5566410000  0.2738820000  0.0091230000  1  1  1
0.5119770000  0.2473260000  0.0200880000  1  1  1
0.6412570000  0.4155310000  0.0200520000  1  1  1
0.5562840000  0.2736120000  0.0309260000  1  1  1
0.5476860000  0.2674300000  0.0452420000  1  1  1
0.6432900000  0.4444410000  0.0516410000  1  1  1
0.4837750000  0.2366270000  0.0660870000  1  1  1
0.5483590000  0.2678920000  0.0728920000  1  1  1
0.5481590000  0.2677540000  0.0865850000  1  1  1
0.4835430000  0.2365560000  0.0932780000  1  1  1
0.4833100000  0.2364840000  0.1066670000  1  1  1
0.5478520000  0.2675430000  0.1133330000  1  1  1
0.5478520000  0.2675430000  0.1266670000  1  1  1
0.4833100000  0.2364840000  0.1333330000  1  1  1
0.4833100000  0.2364840000  0.1466670000  1  1  1
0.5477580000  0.2674780000  0.1533510000  1  1  1
0.5479530000  0.2676130000  0.1669950000  1  1  1
0.6432900000  0.4443680000  0.1738170000  1  1  1
0.4835680000  0.2365630000  0.1883000000  1  1  1
0.5483600000  0.2678930000  0.1946400000  1  1  1
0.6288500000  0.3684300000  0.0092410000  1  1  1
0.5994560000  0.3164180000  0.0137150000  1  1  1
0.5993750000  0.3163120000  0.0263950000  1  1  1
0.6285690000  0.3677200000  0.0309160000  1  1  1
0.6320680000  0.3771950000  0.0452530000  1  1  1
0.5992280000  0.3161210000  0.0524380000  1  1  1
0.5992080000  0.3160950000  0.0662540000  1  1  1
0.6321190000  0.3773440000  0.0728880000  1  1  1
0.6321690000  0.3774900000  0.0866140000  1  1  1
0.5992010000  0.3160850000  0.0932950000  1  1  1
0.5990810000  0.3159290000  0.1066660000  1  1  1
0.6319580000  0.3768740000  0.1133330000  1  1  1
0.6319580000  0.3768740000  0.1266670000  1  1  1
0.5990720000  0.3159180000  0.1333330000  1  1  1
0.5990680000  0.3159120000  0.1466970000  1  1  1
0.6319340000  0.3768050000  0.1533800000  1  1  1
0.6317820000  0.3763660000  0.1670210000  1  1  1
0.5992800000  0.3161880000  0.1737520000  1  1  1
0.5995330000  0.3165190000  0.1874670000  1  1  1
0.6323180000  0.3779300000  0.1946070000  1  1  1
0.6282900000  0.5218690000  0.2091230000  1  1  1
0.6412300000  0.4735440000  0.2200880000  1  1  1
0.5117980000  0.6416440000  0.2200520000  1  1  1
0.6284520000  0.5214650000  0.2309260000  1  1  1
0.6320210000  0.5118310000  0.2452420000  1  1  1
0.4833130000  0.6524040000  0.2516410000  1  1  1
0.6432890000  0.4449060000  0.2660870000  1  1  1
0.6317630000  0.5125790000  0.2728920000  1  1  1
0.6318400000  0.5123560000  0.2865850000  1  1  1
0.6432900000  0.4446760000  0.2932780000  1  1  1
0.6432900000  0.4444440000  0.3066670000  1  1  1
0.6319580000  0.5120150000  0.3133330000  1  1  1
0.6319580000  0.5120150000  0.3266670000  1  1  1
0.6432900000  0.4444440000  0.3333330000  1  1  1
0.6432900000  0.4444440000  0.3466670000  1  1  1
0.6319940000  0.5119110000  0.3533510000  1  1  1
0.6319190000  0.5121280000  0.3669950000  1  1  1
0.4833870000  0.6523810000  0.3738170000  1  1  1
0.6432900000  0.4447010000  0.3883000000  1  1  1
0.6317630000  0.5125800000  0.3946400000  1  1  1
0.5553940000  0.6159450000  0.2092410000  1  1  1
0.5986870000  0.5734700000  0.2137150000  1  1  1
0.5987690000  0.5733650000  0.2263950000  1  1  1
0.5560230000  0.6154730000  0.2309160000  1  1  1
0.5475620000  0.6215440000  0.2452530000  1  1  1
0.5989160000  0.5731740000  0.2524380000  1  1  1
0.5989360000  0.5731480000  0.2662540000  1  1  1
0.5474290000  0.6216360000  0.2728880000  1  1  1
0.5472960000  0.6217260000  0.2866140000  1  1  1
0.5989440000  0.5731380000  0.2932950000  1  1  1
0.5990640000  0.5729820000  0.3066660000  1  1  1
0.5478520000  0.6213460000  0.3133330000  1  1  1
0.5478520000  0.6213460000  0.3266670000  1  1  1
0.5990720000  0.5729710000  0.3333330000  1  1  1
0.5990770000  0.5729650000  0.3466970000  1  1  1
0.5479140000  0.6213030000  0.3533800000  1  1  1
0.5483090000  0.6210310000  0.3670210000  1  1  1
0.5988650000  0.5732410000  0.3737520000  1  1  1
0.5986100000  0.5735700000  0.3874670000  1  1  1
0.5468990000  0.6219960000  0.3946070000  1  1  1
0.4007080000  0.6628570000  0.2091230000  1  1  1
0.4533700000  0.6595470000  0.2200880000  1  1  1
0.2440970000  0.5952340000  0.2200520000  1  1  1
0.4011650000  0.6628780000  0.2309260000  1  1  1
0.4119690000  0.6631070000  0.2452420000  1  1  1
0.2244590000  0.5729740000  0.2516410000  1  1  1
0.4828440000  0.6525470000  0.2660870000  1  1  1
0.4111370000  0.6631060000  0.2728920000  1  1  1
0.4113840000  0.6631070000  0.2865850000  1  1  1
0.4830770000  0.6524760000  0.2932780000  1  1  1
0.4833100000  0.6524050000  0.3066670000  1  1  1
0.4117650000  0.6631070000  0.3133330000  1  1  1
0.4117650000  0.6631070000  0.3266670000  1  1  1
0.4833100000  0.6524050000  0.3333330000  1  1  1
0.4833100000  0.6524050000  0.3466670000  1  1  1
0.4118810000  0.6631070000  0.3533510000  1  1  1
0.4116390000  0.6631070000  0.3669950000  1  1  1
0.2245050000  0.5730330000  0.3738170000  1  1  1
0.4830520000  0.6524840000  0.3883000000  1  1  1
0.4111360000  0.6631060000  0.3946400000  1  1  1
0.2834470000  0.6264520000  0.2092410000  1  1  1
0.3395980000  0.6522130000  0.2137150000  1  1  1
0.3397290000  0.6522540000  0.2263950000  1  1  1
0.2841170000  0.6268710000  0.2309160000  1  1  1
0.2753890000  0.6211470000  0.2452530000  1  1  1
0.3399670000  0.6523270000  0.2524380000  1  1  1
0.3399990000  0.6523370000  0.2662540000  1  1  1
0.2752550000  0.6210560000  0.2728880000  1  1  1
0.2751240000  0.6209650000  0.2866140000  1  1  1
0.3400110000  0.6523410000  0.2932950000  1  1  1
0.3402060000  0.6524010000  0.3066660000  1  1  1
0.2756780000  0.6213460000  0.3133330000  1  1  1
0.2756780000  0.6213460000  0.3266670000  1  1  1
0.3402200000  0.6524050000  0.3333330000  1  1  1
0.3402270000  0.6524070000  0.3466970000  1  1  1
0.2757400000  0.6213890000  0.3533800000  1  1  1
0.2761360000  0.6216600000  0.3670210000  1  1  1
0.3398840000  0.6523020000  0.3737520000  1  1  1
0.3394730000  0.6521740000  0.3874670000  1  1  1
0.2747290000  0.6206920000  0.3946070000  1  1  1
0.1884060000  0.5020070000  0.2091230000  1  1  1
0.2080120000  0.5482850000  0.2200880000  1  1  1
0.2081070000  0.3404380000  0.2200520000  1  1  1
0.1885270000  0.5024230000  0.2309260000  1  1  1
0.1916350000  0.5121980000  0.2452420000  1  1  1
0.2244550000  0.3159210000  0.2516410000  1  1  1
0.2241700000  0.5725970000  0.2660870000  1  1  1
0.1913780000  0.5114510000  0.2728920000  1  1  1
0.1914540000  0.5116730000  0.2865850000  1  1  1
0.2243130000  0.5727840000  0.2932780000  1  1  1
0.2244570000  0.5729710000  0.3066670000  1  1  1
0.1915710000  0.5120150000  0.3133330000  1  1  1
0.1915710000  0.5120150000  0.3266670000  1  1  1
0.2244570000  0.5729710000  0.3333330000  1  1  1
0.2244570000  0.5729710000  0.3466670000  1  1  1
0.1916070000  0.5121190000  0.3533510000  1  1  1
0.1915330000  0.5119020000  0.3669950000  1  1  1
0.2244090000  0.3159800000  0.3738170000  1  1  1
0.2242980000  0.5727640000  0.3883000000  1  1  1
0.1913780000  0.5114500000  0.3946400000  1  1  1
0.1888310000  0.3854310000  0.2092410000  1  1  1
0.1802410000  0.4438270000  0.2137150000  1  1  1
0.1802400000  0.4439570000  0.2263950000  1  1  1
0.1886160000  0.3861610000  0.2309160000  1  1  1
0.1916820000  0.3765530000  0.2452530000  1  1  1
0.1802400000  0.4441940000  0.2524380000  1  1  1
0.1802400000  0.4442260000  0.2662540000  1  1  1
0.1917330000  0.3764050000  0.2728880000  1  1  1
0.1917840000  0.3762580000  0.2866140000  1  1  1
0.1802400000  0.4442380000  0.2932950000  1  1  1
0.1802400000  0.4444310000  0.3066660000  1  1  1
0.1915710000  0.3768740000  0.3133330000  1  1  1
0.1915710000  0.3768740000  0.3266670000  1  1  1
0.1802400000  0.4444440000  0.3333330000  1  1  1
0.1802400000  0.4444520000  0.3466970000  1  1  1
0.1915480000  0.3769430000  0.3533800000  1  1  1
0.1913970000  0.3773830000  0.3670210000  1  1  1
0.1802400000  0.4441110000  0.3737520000  1  1  1
0.1802410000  0.4437030000  0.3874670000  1  1  1
0.1919370000  0.3758200000  0.3946070000  1  1  1
0.2847780000  0.2616070000  0.2091230000  1  1  1
0.2442340000  0.2935190000  0.2200880000  1  1  1
0.4535650000  0.2293750000  0.2200520000  1  1  1
0.2843960000  0.2618440000  0.2309260000  1  1  1
0.2755130000  0.2676560000  0.2452420000  1  1  1
0.4833060000  0.2364830000  0.2516410000  1  1  1
0.2247450000  0.3155440000  0.2660870000  1  1  1
0.2761860000  0.2671950000  0.2728920000  1  1  1
0.2759860000  0.2673320000  0.2865850000  1  1  1
0.2246010000  0.3157310000  0.2932780000  1  1  1
0.2244570000  0.3159180000  0.3066670000  1  1  1
0.2756780000  0.2675430000  0.3133330000  1  1  1
0.2756780000  0.2675430000  0.3266670000  1  1  1
0.2244570000  0.3159180000  0.3333330000  1  1  1
0.2244570000  0.3159180000  0.3466670000  1  1  1
0.2755840000  0.2676070000  0.3533510000  1  1  1
0.2757790000  0.2674730000  0.3669950000  1  1  1
0.4832330000  0.2364600000  0.3738170000  1  1  1
0.2246170000  0.3157110000  0.3883000000  1  1  1
0.2761870000  0.2671940000  0.3946400000  1  1  1
0.4023010000  0.2259650000  0.2092410000  1  1  1
0.3408420000  0.2362940000  0.2137150000  1  1  1
0.3407110000  0.2363340000  0.2263950000  1  1  1
0.4014990000  0.2259970000  0.2309160000  1  1  1
0.4121220000  0.2257820000  0.2452530000  1  1  1
0.3404720000  0.2364070000  0.2524380000  1  1  1
0.3404400000  0.2364170000  0.2662540000  1  1  1
0.4122870000  0.2257830000  0.2728880000  1  1  1
0.4124500000  0.2257830000  0.2866140000  1  1  1
0.3404280000  0.2364200000  0.2932950000  1  1  1
0.3402330000  0.2364800000  0.3066660000  1  1  1
0.4117650000  0.2257820000  0.3133330000  1  1  1
0.4117650000  0.2257820000  0.3266670000  1  1  1
0.3402200000  0.2364840000  0.3333330000  1  1  1
0.3402120000  0.2364860000  0.3466970000  1  1  1
0.4116880000  0.2257820000  0.3533800000  1  1  1
0.4111990000  0.2257830000  0.3670210000  1  1  1
0.3405550000  0.2363810000  0.3737520000  1  1  1
0.3409670000  0.2362560000  0.3874670000  1  1  1
0.4129390000  0.2257850000  0.3946070000  1  1  1
0.5566410000  0.2738820000  0.2091230000  1  1  1
0.5119770000  0.2473260000  0.2200880000  1  1  1
0.6412570000  0.4155310000  0.2200520000  1  1  1
0.5562840000  0.2736120000  0.2309260000  1  1  1
0.5476860000  0.2674300000  0.2452420000  1  1  1
0.6432900000  0.4444410000  0.2516410000  1  1  1
0.4837750000  0.2366270000  0.2660870000  1  1  1
0.5483590000  0.2678920000  0.2728920000  1  1  1
0.5481590000  0.2677540000  0.2865850000  1  1  1
0.4835430000  0.2365560000  0.2932780000  1  1  1
0.4833100000  0.2364840000  0.3066670000  1  1  1
0.5478520000  0.2675430000  0.3133330000  1  1  1
0.5478520000  0.2675430000  0.3266670000  1  1  1
0.4833100000  0.2364840000  0.3333330000  1  1  1
0.4833100000  0.2364840000  0.3466670000  1  1  1
0.5477580000  0.2674780000  0.3533510000  1  1  1
0.5479530000  0.2676130000  0.3669950000  1  1  1
0.6432900000  0.4443680000  0.3738170000  1  1  1
0.4835680000  0.2365630000  0.3883000000  1  1  1
0.5483600000  0.2678930000  0.3946400000  1  1  1
0.6288500000  0.3684300000  0.2092410000  1  1  1
0.5994560000  0.3164180000  0.2137150000  1  1  1
0.5993750000  0.3163120000  0.2263950000  1  1  1
0.6285690000  0.3677200000  0.2309160000  1  1  1
0.6320680000  0.3771950000  0.2452530000  1  1  1
0.5992280000  0.3161210000  0.2524380000  1  1  1
0.5992080000  0.3160950000  0.2662540000  1  1  1
0.6321190000  0.3773440000  0.2728880000  1  1  1
0.6321690000  0.3774900000  0.2866140000  1  1  1
0.5992010000  0.3160850000  0.2932950000  1  1  1
0.5990810000  0.3159290000  0.3066660000  1  1  1
0.6319580000  0.3768740000  0.3133330000  1  1  1
0.6319580000  0.3768740000  0.3266670000  1  1  1
0.5990720000  0.3159180000  0.3333330000  1  1  1
0.5990680000  0.3159120000  0.3466970000  1  1  1
0.6319340000  0.3768050000  0.3533800000  1  1  1
0.6317820000  0.3763660000  0.3670210000  1  1  1
0.5992800000  0.3161880000  0.3737520000  1  1  1
0.5995330000  0.3165190000  0.3874670000  1  1  1
0.6323180000  0.3779300000  0.3946070000  1  1  1
0.6282900000  0.5218690000  0.4091230000  1  1  1
0.6412300000  0.4735440000  0.4200880000  1  1  1
0.5117980000  0.6416440000  0.4200520000  1  1  1
0.6284520000  0.5214650000  0.4309260000  1  1  1
0.6320210000  0.5118310000  0.4452420000  1  1  1
0.4833130000  0.6524040000  0.4516410000  1  1  1
0.6432890000  0.4449060000  0.4660870000  1  1  1
0.6317630000  0.5125790000  0.4728920000  1  1  1
0.6318400000  0.5123560000  0.4865850000  1  1  1
0.6432900000  0.4446760000  0.4932780000  1  1  1
0.6432900000  0.4444440000  0.5066670000  1  1  1
0.6319580000  0.5120150000  0.5133330000  1  1  1
0.6319580000  0.5120150000  0.5266670000  1  1  1
0.6432900000  0.4444440000  0.5333330000  1  1  1
0.6432900000  0.4444440000  0.5466670000  1  1  1
0.6319940000  0.5119110000  0.5533510000  1  1  1
0.6319190000  0.5121280000  0.5669950000  1  1  1
0.4833870000  0.6523810000  0.5738170000  1  1  1
0.6432900000  0.4447010000  0.5883000000  1  1  1
0.6317630000  0.5125800000  0.5946400000  1  1  1
0.5553940000  0.6159450000  0.4092410000  1  1  1
0.5986870000  0.5734700000  0.4137150000  1  1  1
0.5987690000  0.5733650000  0.4263950000  1  1  1
0.5560230000  0.6154730000  0.4309160000  1  1  1
0.5475620000  0.6215440000  0.4452530000  1  1  1
0.5989160000  0.5731740000  0.4524380000  1  1  1
0.5989360000  0.5731480000  0.4662540000  1  1  1
0.5474290000  0.6216360000  0.4728880000  1  1  1
0.5472960000  0.6217260000  0.4866140000  1  1  1
0.5989440000  0.5731380000  0.4932950000  1  1  1
0.5990640000  0.5729820000  0.5066660000  1  1  1
0.5478520000  0.6213460000  0.5133330000  1  1  1
0.5478520000  0.6213460000  0.5266670000  1  1  1
0.5990720000  0.5729710000  0.5333330000  1  1  1
0.5990770000  0.5729650000  0.5466970000  1  1  1
0.5479140000  0.6213030000  0.5533800000  1  1  1
0.5483090000  0.6210310000  0.5670210000  1  1  1
0.5988650000  0.5732410000  0.5737520000  1  1  1
0.5986100000  0.5735700000  0.5874670000  1  1  1
0.5468990000  0.6219960000  0.5946070000  1  1  1
0.4007080000  0.6628570000  0.4091230000  1  1  1
0.4533700000  0.6595470000  0.4200880000  1  1  1
0.2440970000  0.5952340000  0.4200520000  1  1  1
0.4011650000  0.6628780000  0.4309260000  1  1  1
0.4119690000  0.6631070000  0.4452420000  1  1  1
0.2244590000  0.5729740000  0.4516410000  1  1  1
0.4828440000  0.6525470000  0.4660870000  1  1  1
0.4111370000  0.6631060000  0.4728920000  1  1  1
0.4113840000  0.6631070000  0.4865850000  1  1  1
0.4830770000  0.6524760000  0.4932780000  1  1  1
0.4833100000  0.6524050000  0.5066670000  1  1  1
0.4117650000  0.6631070000  0.5133330000  1  1  1
0.4117650000  0.6631070000  0.5266670000  1  1  1
0.4833100000  0.6524050000  0.5333330000  1  1  1
0.4833100000  0.6524050000  0.5466670000  1  1  1
0.4118810000  0.6631070000  0.5533510000  1  1  1
0.4116390000  0.6631070000  0.5669950000  1  1  1
0.2245050000  0.5730330000  0.5738170000  1  1  1
0.4830520000  0.6524840000  0.5883000000  1  1  1
0.4111360000  0.6631060000  0.5946400000  1  1  1
0.2834470000  0.6264520000  0.4092410000  1  1  1
0.3395980000  0.6522130000  0.4137150000  1  1  1
0.3397290000  0.6522540000  0.4263950000  1  1  1
0.2841170000  0.6268710000  0.4309160000  1  1  1
0.2753890000  0.6211470000  0.4452530000  1  1  1
0.3399670000  0.6523270000  0.4524380000  1  1  1
0.3399990000  0.6523370000  0.4662540000  1  1  1
0.2752550000  0.6210560000  0.4728880000  1  1  1
0.2751240000  0.6209650000  0.4866140000  1  1  1
0.3400110000  0.6523410000  0.4932950000  1  1  1
0.3402060000  0.6524010000  0.5066660000  1  1  1
0.2756780000  0.6213460000  0.5133330000  1  1  1
0.2756780000  0.6213460000  0.5266670000  1  1  1
0.3402200000  0.6524050000  0.5333330000  1  1  1
0.3402270000  0.6524070000  0.5466970000  1  1  1
0.2757400000  0.6213890000  0.5533800000  1  1  1
0.2761360000  0.6216600000  0.5670210000  1  1  1
0.3398840000  0.6523020000  0.5737520000  1  1  1
0.3394730000  0.6521740000  0.5874670000  1  1  1
0.2747290000  0.6206920000  0.5946070000  1  1  1
0.1884060000  0.5020070000  0.4091230000  1  1  1
0.2080120000  0.5482850000  0.4200880000  1  1  1
0.2081070000  0.3404380000  0.4200520000  1  1  1
0.1885270000  0.5024230000  0.4309260000  1  1  1
0.1916350000  0.5121980000  0.4452420000  1  1  1
0.2244550000  0.3159210000  0.4516410000  1  1  1
0.2241700000  0.5725970000  0.4660870000  1  1  1
0.1913780000  0.5114510000  0.4728920000  1  1  1
0.1914540000  0.5116730000  0.4865850000  1  1  1
0.2243130000  0.5727840000  0.4932780000  1  1  1
0.2244570000  0.5729710000  0.5066670000  1  1  1
0.1915710000  0.5120150000  0.5133330000  1  1  1
0.1915710000  0.5120150000  0.5266670000  1  1  1
0.2244570000  0.5729710000  0.5333330000  1  1  1
0.2244570000  0.5729710000  0.5466670000  1  1  1
0.1916070000  0.5121190000  0.5533510000  1  1  1
0.1915330000  0.5119020000  0.5669950000  1  1  1
0.2244090000  0.3159800000  0.5738170000  1  1  1
0.2242980000  0.5727640000  0.5883000000  1  1  1
0.1913780000  0.5114500000  0.5946400000  1  1  1
0.1888310000  0.3854310000  0.4092410000  1  1  1
0.1802410000  0.4438270000  0.4137150000  1  1  1
0.1802400000  0.4439570000  0.4263950000  1  1  1
0.1886160000  0.3861610000  0.4309160000  1  1  1
0.1916820000  0.3765530000  0.4452530000  1  1  1
0.1802400000  0.4441940000  0.4524380000  1  1  1
0.1802400000  0.4442260000  0.4662540000  1  1  1
0.1917330000  0.3764050000  0.4728880000  1  1  1
0.1917840000  0.3762580000  0.4866140000  1  1  1
0.1802400000  0.4442380000  0.4932950000  1  1  1
0.1802400000  0.4444310000  0.5066660000  1  1  1
0.1915710000  0.3768740000  0.5133330000  1  1  1
0.1915710000  0.3768740000  0.5266670000  1  1  1
0.1802400000  0.4444440000  0.5333330000  1  1  1
0.1802400000  0.4444520000  0.5466970000  1  1  1
0.1915480000  0.3769430000  0.5533800000  1  1  1
0.1913970000  0.3773830000  0.5670210000  1  1  1
0.1802400000  0.4441110000  0.5737520000  1  1  1
0.1802410000  0.4437030000  0.5874670000  1  1  1
0.1919370000  0.3758200000  0.5946070000  1  1  1
0.2847780000  0.2616070000  0.4091230000  1  1  1
0.2442340000  0.2935190000  0.4200880000  1  1  1
0.4535650000  0.2293750000  0.4200520000  1  1  1
0.2843960000  0.2618440000  0.4309260000  1  1  1
0.2755130000  0.2676560000  0.4452420000  1  1  1
0.4833060000  0.2364830000  0.4516410000  1  1  1
0.2247450000  0.3155440000  0.4660870000  1  1  1
0.2761860000  0.2671950000  0.4728920000  1  1  1
0.2759860000  0.2673320000  0.4865850000  1  1  1
0.2246010000  0.3157310000  0.4932780000  1  1  1
0.2244570000  0.3159180000  0.5066670000  1  1  1
0.2756780000  0.2675430000  0.5133330000  1  1  1
0.2756780000  0.2675430000  0.5266670000  1  1  1
0.2244570000  0.3159180000  0.5333330000  1  1  1
0.2244570000  0.3159180000  0.5466670000  1  1  1
0.2755840000  0.2676070000  0.5533510000  1  1  1
0.2757790000  0.2674730000  0.5669950000  1  1  1
0.4832330000  0.2364600000  0.5738170000  1  1  1
0.2246170000  0.3157110000  0.5883000000  1  1  1
0.2761870000  0.2671940000  0.5946400000  1  1  1
0.4023010000  0.2259650000  0.4092410000  1  1  1
0.3408420000  0.2362940000  0.4137150000  1  1  1
0.3407110000  0.2363340000  0.4263950000  1  1  1
0.4014990000  0.2259970000  0.4309160000  1  1  1
0.4121220000  0.2257820000  0.4452530000  1  1  1
0.3404720000  0.2364070000  0.4524380000  1  1  1
0.3404400000  0.2364170000  0.4662540000  1  1  1
0.4122870000  0.2257830000  0.4728880000  1  1  1
0.4124500000  0.2257830000  0.4866140000  1  1  1
0.3404280000  0.2364200000  0.4932950000  1  1  1
0.3402330000  0.2364800000  0.5066660000  1  1  1
0.4117650000  0.2257820000  0.5133330000  1  1  1
0.4117650000  0.2257820000  0.5266670000  1  1  1
0.3402200000  0.2364840000  0.5333330000  1  1  1
0.3402120000  0.2364860000  0.5466970000  1  1  1
0.4116880000  0.2257820000  0.5533800000  1  1  1
0.4111990000  0.2257830000  0.5670210000  1  1  1
0.3405550000  0.2363810000  0.5737520000  1  1  1
0.3409670000  0.2362560000  0.5874670000  1  1  1
0.4129390000  0.2257850000  0.5946070000  1  1  1
0.5566410000  0.2738820000  0.4091230000  1  1  1
0.5119770000  0.2473260000  0.4200880000  1  1  1
0.6412570000  0.4155310000  0.4200520000  1  1  1
0.5562840000  0.2736120000  0.4309260000  1  1  1
0.5476860000  0.2674300000  0.4452420000  1  1  1
0.6432900000  0.4444410000  0.4516410000  1  1  1
0.4837750000  0.2366270000  0.4660870000  1  1  1
0.5483590000  0.2678920000  0.4728920000  1  1  1
0.5481590000  0.2677540000  0.4865850000  1  1  1
0.4835430000  0.2365560000  0.4932780000  1  1  1
0.4833100000  0.2364840000  0.5066670000  1  1  1
0.5478520000  0.2675430000  0.5133330000  1  1  1
0.5478520000  0.2675430000  0.5266670000  1  1  1
0.4833100000  0.2364840000  0.5333330000  1  1  1
0.4833100000  0.2364840000  0.5466670000  1  1  1
0.5477580000  0.2674780000  0.5533510000  1  1  1
0.5479530000  0.2676130000  0.5669950000  1  1  1
0.6432900000  0.4443680000  0.5738170000  1  1  1
0.4835680000  0.2365630000  0.5883000000  1  1  1
0.5483600000  0.2678930000  0.5946400000  1  1  1
0.6288500000  0.3684300000  0.4092410000  1  1  1
0.5994560000  0.3164180000  0.4137150000  1  1  1
0.5993750000  0.3163120000  0.4263950000  1  1  1
0.6285690000  0.3677200000  0.4309160000  1  1  1
0.6320680000  0.3771950000  0.4452530000  1  1  1
0.5992280000  0.3161210000  0.4524380000  1  1  1
0.5992080000  0.3160950000  0.4662540000  1  1  1
0.6321190000  0.3773440000  0.4728880000  1  1  1
0.6321690000  0.3774900000  0.4866140000  1  1  1
0.5992010000  0.3160850000  0.4932950000  1  1  1
0.5990810000  0.3159290000  0.5066660000  1  1  1
0.6319580000  0.3768740000  0.5133330000  1  1  1
0.6319580000  0.3768740000  0.5266670000  1  1  1