%BLOCK LATTICE_CART
2.674632478469    0.000000000000    0.000000000000    
-1.337316239234    2.316299672141    0.000000000000    
0.000000000000    0.000000000000    4.259906642810    
%END BLOCK LATTICE_CART
%BLOCK POSITIONS_FRAC
Si    0.000000000000    0.000000000000    0.000000000000
Si    0.666666666667    0.333333333333    0.500000000000
%END BLOCK POSITIONS_FRAC
%BLOCK SPECIES_POT
Si si.gga.recpot
%END BLOCK SPECIES_POT
