%BLOCK LATTICE_CART
   2.806843720900000   0.000000000000000   0.000000000000000
   1.403421860450000   2.430797966752238   0.000000000000000
   0.000000000000003   0.000000000000002  50.679224937050648
%END BLOCK LATTICE_CART
%BLOCK POSITIONS_FRAC
    Al   0.000000000000000   0.000000000000000   0.000154580270809
    Al   0.333333333300000   0.333333333300000   0.045170393918203
    Al   0.666666666700000   0.666666666700000   0.090326620960443
    Al   0.000000000000000   0.000000000000000   0.135313104131201
    Al   0.333333333300000   0.333333333300000   0.181091919691801
    Al   0.000000000000000   0.000000000000000   0.226510443076935
    Al   0.566666666700000   0.566666666700000   0.273486396839740
    Al   0.900000000000000   0.900000000000000   0.318707988567595
    Al   0.233333333300000   0.233333333300000   0.363905954045200
    Al   0.566666666700000   0.566666666700000   0.408931041104199
    Al   0.900000000000000   0.900000000000000   0.454546648287194
    Al   0.566666666700000   0.566666666700000   0.500162135630006
    Al   0.233333333300000   0.233333333300000   0.545186942339874
    Al   0.900000000000000   0.900000000000000   0.590384440667731
    Al   0.566666666700000   0.566666666700000   0.635605520177302
    Al   1.000000000000000   1.000000000000000   0.682580801056013
    Al   0.333333333300000   0.333333333300000   0.727998770464717
    Al   1.000000000000000   1.000000000000000   0.773776956528161
    Al   0.666666666700000   0.666666666700000   0.818762924636102
    Al   0.333333333300000   0.333333333300000   0.863918703747325
    Al   0.000000000000000   0.000000000000000   0.908934239333020
    Al   0.666666666700000   0.666666666700000   0.954544349577093
%END BLOCK POSITIONS_FRAC
%BLOCK SPECIES_POT
    Al al.lda.recpot                                                                          
%END BLOCK SPECIES_POT
%BLOCK ION_OPTIMIZATION
           0           0           1
           0           0           1
           0           0           1
           0           0           1
           0           0           1
           0           0           1
           0           0           1
           0           0           1
           0           0           1
           0           0           1
           0           0           1
           0           0           1
           0           0           1
           0           0           1
           0           0           1
           0           0           1
           0           0           1
           0           0           1
           0           0           1
           0           0           1
           0           0           1
           0           0           1
%END BLOCK ION_OPTIMIZATION
