ATOMIC_SPECIES
Al  Al_mass  Al_pesudopotential
As  As_mass  As_pesudopotential
H  H_mass  H_pesudopotential
O  O_mass  O_pesudopotential

NUMERICAL_ORBITAL
Al_orbital
As_orbital
H_orbital
O_orbital

LATTICE_CONSTANT
1.889727000000

LATTICE_VECTORS
48.685183592614  0.000000000000  0.000000000000
0.000000000000  30.388122000006  0.000000000000
0.000000000000  0.000000000000  51.638435192407

ATOMIC_POSITIONS
Direct

Al
0
540
0.999934111312  0.013650534571  0.008597912313  0  0  0
0.000117729801  0.013647377615  0.675371748566  0  0  0
0.333341198192  0.013436991353  0.341913500050  0  0  0
0.666774115152  0.013585045868  0.008700739431  0  0  0
0.666784870673  0.013622787866  0.675374205172  0  0  0
0.332850045224  0.013775456035  0.563851761987  0  0  0
0.666166485881  0.013659790956  0.230491659245  0  0  0
0.666175139724  0.013747558624  0.897174880916  0  0  0
0.999520002175  0.013782875380  0.563852097387  0  0  0
0.000984127146  0.013313604912  0.119249657702  0  0  0
0.000564692369  0.013489867105  0.785968569884  0  0  0
0.333906913285  0.013410925613  0.452621887791  0  0  0
0.667223230407  0.013461774561  0.119302029184  0  0  0
0.667235257270  0.013481767761  0.785966572796  0  0  0
0.166530329874  0.013110983315  0.342193117646  0  0  0
0.499862266933  0.013210106057  0.009439010487  0  0  0
0.499880935319  0.013255498400  0.676096599113  0  0  0
0.833218380404  0.013171250489  0.342762924578  0  0  0
0.165795570265  0.001178950971  0.223687779585  0  0  0
0.164725657400  0.007762486716  0.890070832623  0  0  0
0.498056786572  0.007766130525  0.556745890438  0  0  0
0.831390822412  0.007748825140  0.223415915288  0  0  0
0.831387448614  0.007769345102  0.890075964567  0  0  0
0.162203900274  0.978878855041  0.437552353798  0  0  0
0.495537233606  0.978878855041  0.104219020464  0  0  0
0.495537233606  0.978878855041  0.770885687132  0  0  0
0.828870566940  0.978878855041  0.437552353798  0  0  0
0.083231673218  0.013676313322  0.008460366305  0  0  0
0.083502262048  0.013652071744  0.675507538013  0  0  0
0.416792237495  0.013525060415  0.342167448892  0  0  0
0.750173219414  0.013618017227  0.008857425691  0  0  0
0.750167338352  0.013651007067  0.675536975529  0  0  0
0.081011384596  0.013868040498  0.562686147752  0  0  0
0.414287721478  0.013587343062  0.229256768141  0  0  0
0.414357784073  0.013805482838  0.896024602524  0  0  0
0.747671059815  0.013834727692  0.562700674458  0  0  0
0.083613498515  0.013032900080  0.119781678696  0  0  0
0.083067954942  0.011602448793  0.787941077794  0  0  0
0.416391850602  0.011619713321  0.454633136447  0  0  0
0.749750023525  0.011594818218  0.121273833405  0  0  0
0.749734151442  0.011672286755  0.787980433700  0  0  0
0.249728086975  0.013532044884  0.341995726275  0  0  0
0.583086069773  0.013630036386  0.008882018610  0  0  0
0.583106351400  0.013663601076  0.675546459537  0  0  0
0.916484562843  0.013546957028  0.342195502895  0  0  0
0.249871690287  0.012919618534  0.230008667593  0  0  0
0.250732795693  0.014483338035  0.897111973263  0  0  0
0.584038858955  0.014465748762  0.563768646553  0  0  0
0.917411473640  0.014281518075  0.230377994328  0  0  0
0.917361264807  0.014497742019  0.897117022201  0  0  0
0.253269480689  0.014254557514  0.451979242907  0  0  0
0.586562946490  0.014309290702  0.118755162908  0  0  0
0.586585213901  0.014349029950  0.785437376419  0  0  0
0.919933540313  0.014291304372  0.452099366303  0  0  0
0.124935094315  0.061109489978  0.054638115710  0  0  0
0.126412717183  0.061770715926  0.722372178956  0  0  0
0.459755467610  0.061789393834  0.389070190018  0  0  0
0.793089259271  0.061771361880  0.055728147990  0  0  0
0.793082453951  0.061788449807  0.722399249544  0  0  0
0.124979900982  0.061586946373  0.610105054488  0  0  0
0.458323970766  0.061579602645  0.276816161292  0  0  0
0.458314707389  0.061588649021  0.943475531653  0  0  0
0.791643985802  0.061591693652  0.610132525242  0  0  0
0.125483790739  0.061792562277  0.165953456239  0  0  0
0.125034975320  0.060348892131  0.830065485189  0  0  0
0.458366875893  0.060362651549  0.496736930682  0  0  0
0.791677949056  0.060374722616  0.163433049468  0  0  0
0.791691520257  0.060356895527  0.830061764138  0  0  0
0.291670899360  0.061359759552  0.387913299191  0  0  0
0.624964058107  0.061267734018  0.054606875302  0  0  0
0.624973118657  0.061271267373  0.721262159965  0  0  0
0.958320313964  0.061291752879  0.387962343377  0  0  0
0.291417470294  0.061263590633  0.276895912095  0  0  0
0.291607392983  0.061328492230  0.943531154532  0  0  0
0.624885663507  0.061303373346  0.610221089679  0  0  0
0.958239448971  0.061277991634  0.276969052696  0  0  0
0.958185555777  0.061280335415  0.943499551952  0  0  0
0.291868360055  0.061187924279  0.498784903781  0  0  0
0.625186832571  0.061162534480  0.165466025276  0  0  0
0.625198740779  0.061170070997  0.832126957126  0  0  0
0.958536123072  0.061181681163  0.498800145264  0  0  0
0.041748140429  0.061054483327  0.054579537694  0  0  0
0.042459983737  0.061129107496  0.721737696016  0  0  0
0.375787287549  0.061152059988  0.388429287881  0  0  0
0.709123993452  0.061127419281  0.055088124532  0  0  0
0.709129230901  0.061124629061  0.721745223765  0  0  0
0.041531958075  0.061205057785  0.610044250901  0  0  0
0.374851520253  0.061213933262  0.276793065422  0  0  0
0.374886054126  0.061209071232  0.943398542286  0  0  0
0.708194596493  0.061211657590  0.610063080948  0  0  0
0.041773763999  0.061276292315  0.165707010285  0  0  0
0.041683529852  0.061226444838  0.832215704080  0  0  0
0.375036306753  0.061227526216  0.498888564134  0  0  0
0.708347907139  0.061256802333  0.165588918641  0  0  0
0.708365002131  0.061213395957  0.832217796633  0  0  0
0.206377020827  0.061294290236  0.388425695584  0  0  0
0.539710335006  0.061264694839  0.055217092458  0  0  0
0.539722030891  0.061266736802  0.721877292707  0  0  0
0.873058455174  0.061263089066  0.388566645114  0  0  0
0.207985484290  0.061370849587  0.276987574011  0  0  0
0.207881690363  0.061440906056  0.943611946939  0  0  0
0.541143997933  0.061440211614  0.610407954330  0  0  0
0.874463559698  0.061434332226  0.277108333888  0  0  0
0.874482932781  0.061437017944  0.943732517489  0  0  0
0.208226132040  0.063293336877  0.499074758126  0  0  0
0.541577818500  0.063279250821  0.165754495086  0  0  0
0.541579712214  0.063268203790  0.832415919566  0  0  0
0.874913120762  0.063263449265  0.499089328242  0  0  0
0.000000000000  0.130439996605  0.000000000000  0  0  0
0.000000000000  0.130439996605  0.666666666668  0  0  0
0.333333333332  0.130439996605  0.333333333332  0  0  0
0.666666666668  0.130439996605  0.000000000000  0  0  0
0.666666666668  0.130439996605  0.666666666668  0  0  0
0.000000000000  0.130439996605  0.555556674713  0  0  0
0.333333333332  0.130439996605  0.222223341380  0  0  0
0.333333333332  0.130439996605  0.888890008047  0  0  0
0.666666666668  0.130439996605  0.555556674713  0  0  0
0.000000000000  0.130439996605  0.111110001801  0  0  0
0.000000000000  0.130439996605  0.777776668467  0  0  0
0.333333333332  0.130439996605  0.444443335133  0  0  0
0.666666666668  0.130439996605  0.111110001801  0  0  0
0.666666666668  0.130439996605  0.777776668467  0  0  0
0.166666666675  0.130439996605  0.333333333332  0  0  0
0.500000000007  0.130439996605  0.000000000000  0  0  0
0.500000000007  0.130439996605  0.666666666668  0  0  0
0.833333333341  0.130439996605  0.333333333332  0  0  0
0.166666666675  0.130439996605  0.222223341380  0  0  0
0.166666666675  0.130439996605  0.888890008047  0  0  0
0.500000000007  0.130439996605  0.555556674713  0  0  0
0.833333333341  0.130439996605  0.222223341380  0  0  0
0.833333333341  0.130439996605  0.888890008047  0  0  0
0.166666666675  0.130439996605  0.444443335133  0  0  0
0.500000000007  0.130439996605  0.111110001801  0  0  0
0.500000000007  0.130439996605  0.777776668467  0  0  0
0.833333333341  0.130439996605  0.444443335133  0  0  0
0.083333333327  0.130439996605  0.000000000000  0  0  0
0.083333333327  0.130439996605  0.666666666668  0  0  0
0.416666666661  0.130439996605  0.333333333332  0  0  0
0.749999999993  0.130439996605  0.000000000000  0  0  0
0.749999999993  0.130439996605  0.666666666668  0  0  0
0.083333333327  0.130439996605  0.555556674713  0  0  0
0.416666666661  0.130439996605  0.222223341380  0  0  0
0.416666666661  0.130439996605  0.888890008047  0  0  0
0.749999999993  0.130439996605  0.555556674713  0  0  0
0.083333333327  0.130439996605  0.111110001801  0  0  0
0.083333333327  0.130439996605  0.777776668467  0  0  0
0.416666666661  0.130439996605  0.444443335133  0  0  0
0.749999999993  0.130439996605  0.111110001801  0  0  0
0.749999999993  0.130439996605  0.777776668467  0  0  0
0.250000000089  0.130439996605  0.333333333332  0  0  0
0.583333333421  0.130439996605  0.000000000000  0  0  0
0.583333333421  0.130439996605  0.666666666668  0  0  0
0.916666666755  0.130439996605  0.333333333332  0  0  0
0.250000000089  0.130439996605  0.222223341380  0  0  0
0.250000000089  0.130439996605  0.888890008047  0  0  0
0.583333333421  0.130439996605  0.555556674713  0  0  0
0.916666666755  0.130439996605  0.222223341380  0  0  0
0.916666666755  0.130439996605  0.888890008047  0  0  0
0.250000000089  0.130439996605  0.444443335133  0  0  0
0.583333333421  0.130439996605  0.111110001801  0  0  0
0.583333333421  0.130439996605  0.777776668467  0  0  0
0.916666666755  0.130439996605  0.444443335133  0  0  0
0.124937500054  0.199775462347  0.054642543705  0  0  0
0.126402198314  0.199136608094  0.722354824115  0  0  0
0.459744782237  0.199116228994  0.389054647397  0  0  0
0.793078643457  0.199134763356  0.055712284608  0  0  0
0.793072140575  0.199116732254  0.722383430917  0  0  0
0.124971036965  0.199243890425  0.610135829699  0  0  0
0.458314485618  0.199250682853  0.276847528990  0  0  0
0.458305558065  0.199241624859  0.943506360349  0  0  0
0.791634826723  0.199238529493  0.610163354278  0  0  0
0.125506726566  0.199124670233  0.165970169923  0  0  0
0.125032653037  0.200505381573  0.830078784083  0  0  0
0.458364612057  0.200490513517  0.496750388040  0  0  0
0.791674959323  0.200477736993  0.163447105532  0  0  0
0.791689064088  0.200496495617  0.830075382969  0  0  0
0.291676725331  0.199544715896  0.387901012997  0  0  0
0.624969459482  0.199632624750  0.054596267904  0  0  0
0.624978687024  0.199628874756  0.721251400070  0  0  0
0.958325328661  0.199610240470  0.387951912960  0  0  0
0.291416873510  0.199640215146  0.276895849744  0  0  0
0.291614834704  0.199556326703  0.943536786485  0  0  0
0.624892535789  0.199581487776  0.610226889080  0  0  0
0.958252131755  0.199607215158  0.276975345783  0  0  0
0.958192867437  0.199602054633  0.943505899701  0  0  0
0.291878494654  0.199690460618  0.498784670185  0  0  0
0.625196339891  0.199714403767  0.165466649219  0  0  0
0.625208397594  0.199707652038  0.832127016827  0  0  0
0.958545689464  0.199696200245  0.498800609392  0  0  0
0.041753050285  0.199837802710  0.054576774064  0  0  0
0.042460611645  0.199766886940  0.721730064014  0  0  0
0.375787937362  0.199746236113  0.388421983594  0  0  0
0.709124286877  0.199767902633  0.055081079801  0  0  0
0.709129490606  0.199770399054  0.721737920650  0  0  0
0.041530699283  0.199673183001  0.610056036104  0  0  0
0.374847528177  0.199669250111  0.276804021261  0  0  0
0.374884195784  0.199669272021  0.943409894150  0  0  0
0.708193057496  0.199666719740  0.610074526195  0  0  0
0.041794306120  0.199613901626  0.165721472697  0  0  0
0.041690572313  0.199654169482  0.832223659013  0  0  0
0.375043155601  0.199652469375  0.498896780622  0  0  0
0.708354298107  0.199624274155  0.165596680856  0  0  0
0.708371455873  0.199666128927  0.832226048896  0  0  0
0.206390173146  0.199601266272  0.388413606359  0  0  0
0.539723777942  0.199622587959  0.055209377262  0  0  0
0.539735194920  0.199620812956  0.721869329465  0  0  0
0.873071497340  0.199624463524  0.388558563561  0  0  0
0.207991946765  0.199568719667  0.276976346687  0  0  0
0.207895155695  0.199384492892  0.943644486429  0  0  0
0.541157619298  0.199386201302  0.610439283187  0  0  0
0.874478445775  0.199392697075  0.277139827894  0  0  0
0.874496676060  0.199389479482  0.943763547454  0  0  0
0.208233826575  0.197569077783  0.499089451866  0  0  0
0.541585155300  0.197583567019  0.165768797483  0  0  0
0.541586947844  0.197594573039  0.832430450395  0  0  0
0.874920339070  0.197599201854  0.499103804982  0  0  0
0.999936599297  0.247289102255  0.008604997636  0  0  0
0.000119867932  0.247298245095  0.675376405977  0  0  0
0.333342768665  0.247501623945  0.341917655427  0  0  0
0.666776755101  0.247357565568  0.008706402468  0  0  0
0.666787128167  0.247321870404  0.675379157377  0  0  0
0.332864465664  0.247136016202  0.563858972792  0  0  0
0.666181104073  0.247250270552  0.230498780893  0  0  0
0.666189147814  0.247164800255  0.897181713555  0  0  0
0.999534344152  0.247128285966  0.563859507116  0  0  0
0.000998157506  0.247580170064  0.119249291411  0  0  0
0.000575723233  0.247407114054  0.785964357644  0  0  0
0.333917666314  0.247486193996  0.452617459408  0  0  0
0.667234200699  0.247435193438  0.119297806004  0  0  0
0.667246044057  0.247414510921  0.785962387372  0  0  0
0.166531762588  0.247803058022  0.342189502529  0  0  0
0.499860951574  0.247685298927  0.009464887812  0  0  0
0.499880207624  0.247639693247  0.676122351419  0  0  0
0.833218596046  0.247726340605  0.342788148011  0  0  0
0.165835429618  0.259904956614  0.223747355062  0  0  0
0.164713336473  0.253008625737  0.890126191914  0  0  0
0.498043715732  0.253005229311  0.556801376899  0  0  0
0.831379302201  0.253022466579  0.223471372686  0  0  0
0.831374279149  0.253002316202  0.890131357267  0  0  0
0.162216414359  0.281865510018  0.437579288246  0  0  0
0.495549747691  0.281865510018  0.104245954912  0  0  0
0.495549747691  0.281865510018  0.770912621578  0  0  0
0.828883081025  0.281865510018  0.437579288246  0  0  0
0.083232435503  0.247251537313  0.008474557893  0  0  0
0.083500469390  0.247285740208  0.675518693749  0  0  0
0.416789953890  0.247409694886  0.342179752340  0  0  0
0.750170794334  0.247317701826  0.008868993062  0  0  0
0.750165163514  0.247284803967  0.675548976011  0  0  0
0.081022513427  0.247010541374  0.562732701742  0  0  0
0.414294748378  0.247290833575  0.229304064781  0  0  0
0.414369198946  0.247069910214  0.896071822382  0  0  0
0.747682367743  0.247041769287  0.562747985242  0  0  0
0.083626665284  0.247873819450  0.119784867302  0  0  0
0.083075401386  0.249278259737  0.787941268756  0  0  0
0.416399158795  0.249259409690  0.454634805204  0  0  0
0.749756772499  0.249284796410  0.121274560482  0  0  0
0.749741917026  0.249203907715  0.787981759996  0  0  0
0.249734224153  0.247394969121  0.341993892370  0  0  0
0.583091843738  0.247301702965  0.008893144847  0  0  0
0.583112108468  0.247269052824  0.675557390125  0  0  0
0.916491990451  0.247384872344  0.342206039102  0  0  0
0.249837317664  0.248028918499  0.230034360785  0  0  0
0.250770536448  0.246368948804  0.897127555839  0  0  0
0.584076273810  0.246383333664  0.563784971367  0  0  0
0.917455360904  0.246571824320  0.230394977314  0  0  0
0.917398391325  0.246352258775  0.897132977074  0  0  0
0.253289239986  0.246635169857  0.451968504581  0  0  0
0.586582697987  0.246580332345  0.118744858452  0  0  0
0.586604640467  0.246537805829  0.785427676581  0  0  0
0.919952907914  0.246598599144  0.452088903371  0  0  0
0.124811852445  0.989483719843  0.031147475381  0  0  0
0.124908954680  0.989801137891  0.698513513953  0  0  0
0.458224944304  0.989794353987  0.365207066372  0  0  0
0.791568379701  0.989764668874  0.031859453264  0  0  0
0.791563177917  0.989792822090  0.698539906583  0  0  0
0.124102998036  0.992515410166  0.583925915891  0  0  0
0.457452828609  0.992556639053  0.250566290180  0  0  0
0.457446460661  0.992516697223  0.917256084903  0  0  0
0.790772257785  0.992524834223  0.583927950571  0  0  0
0.125528959049  0.989870277187  0.142249064689  0  0  0
0.125552311561  0.988011997822  0.808193535957  0  0  0
0.458891769341  0.988069405803  0.474843963335  0  0  0
0.792228315494  0.988101309944  0.141513236150  0  0  0
0.792218188230  0.988071221469  0.808168517701  0  0  0
0.291612148200  0.989793684059  0.364531437245  0  0  0
0.624983254751  0.989728877955  0.031147724219  0  0  0
0.624984598984  0.989731897425  0.697819053559  0  0  0
0.958360501959  0.989803963282  0.364465841021  0  0  0
0.291238587704  0.989666895896  0.253237835705  0  0  0
0.291400309334  0.989205138600  0.920132204160  0  0  0
0.624735975884  0.989203139211  0.586784624180  0  0  0
0.958123202796  0.989289483616  0.253403965619  0  0  0
0.958061454492  0.989154228511  0.920113922889  0  0  0
0.292819193316  0.988714624031  0.475907016989  0  0  0
0.626164268792  0.988676466225  0.142545891505  0  0  0
0.626172786863  0.988693013730  0.809226237385  0  0  0
0.959495003047  0.988688644928  0.475925796667  0  0  0
0.041656707052  0.989531008910  0.031064324335  0  0  0
0.041744827798  0.989734852085  0.697959592140  0  0  0
0.375022800193  0.989800168554  0.364617470611  0  0  0
0.708407686800  0.989732692660  0.031287601068  0  0  0
0.708402080026  0.989717828187  0.697959436838  0  0  0
0.040784708957  0.989158996551  0.586671897237  0  0  0
0.374098307205  0.989300191833  0.253303091544  0  0  0
0.374122148782  0.989136798757  0.920008604139  0  0  0
0.707444685427  0.989157386548  0.586677727476  0  0  0
0.042040527119  0.989328153021  0.142413796153  0  0  0
0.040900042954  0.988835787431  0.809648098266  0  0  0
0.374231703158  0.988813429474  0.476339843906  0  0  0
0.707571002747  0.988888623263  0.142987563016  0  0  0
0.707552824454  0.988815685902  0.809637811000  0  0  0
0.208290681280  0.989502069238  0.364762446360  0  0  0
0.541710986117  0.989325626236  0.031549050905  0  0  0
0.541714007097  0.989341621020  0.698215418740  0  0  0
0.875055263307  0.989350261968  0.364871246262  0  0  0
0.207433550452  0.991766412554  0.251909231726  0  0  0
0.206638314602  0.991993905599  0.916819994864  0  0  0
0.539990451811  0.992013237298  0.583493881683  0  0  0
0.873325193733  0.992037553851  0.250134741751  0  0  0
0.873320188656  0.992006994394  0.916829224276  0  0  0
0.206691079315  0.998216667109  0.468774741674  0  0  0
0.540024412649  0.998216667109  0.135441408340  0  0  0
0.540024412649  0.998216667109  0.802108075006  0  0  0
0.873357745983  0.998216667109  0.468774741674  0  0  0
0.999954396578  0.064184616528  0.082545030796  0  0  0
0.000131371725  0.064232846192  0.749223074466  0  0  0
0.333477238317  0.064207110491  0.415925867233  0  0  0
0.666796947509  0.064219236477  0.082554265990  0  0  0
0.666795527920  0.064234790664  0.749220502021  0  0  0
0.333264530801  0.063910226203  0.638263525279  0  0  0
0.666599356996  0.063875770804  0.304932355856  0  0  0
0.666602221306  0.063889288339  0.971598424036  0  0  0
0.999938537074  0.063909168253  0.638262846027  0  0  0
0.333202878481  0.064240142315  0.193706236865  0  0  0
0.333279286137  0.064288339999  0.860413200707  0  0  0
0.666613453967  0.064297552758  0.527073800907  0  0  0
0.999869681060  0.064082215042  0.193690638638  0  0  0
0.999944221368  0.064302562099  0.860414231819  0  0  0
0.166743944514  0.060254649684  0.418494375621  0  0  0
0.500088747343  0.060307689177  0.085192980084  0  0  0
0.500079003921  0.060318365548  0.751863899523  0  0  0
0.833403594898  0.060317303238  0.418528031180  0  0  0
0.166400161705  0.063576783421  0.305015903033  0  0  0
0.166386574444  0.063393949432  0.971562265989  0  0  0
0.499727022877  0.063091343810  0.638436575072  0  0  0
0.833036184171  0.063063050063  0.305100876738  0  0  0
0.833076374089  0.063090218478  0.971766122447  0  0  0
0.166048364514  0.067025884213  0.525632440417  0  0  0
0.499406860361  0.067016525293  0.192275237816  0  0  0
0.499390340295  0.067027829436  0.858958008976  0  0  0
0.832720872654  0.067031642993  0.525629702694  0  0  0
0.083364161567  0.063799035338  0.082827916738  0  0  0
0.083933791056  0.062716990246  0.750368628856  0  0  0
0.417275013557  0.062712996869  0.417042672045  0  0  0
0.750601048190  0.062711407029  0.083691770291  0  0  0
0.750591365664  0.062725730399  0.750368556838  0  0  0
0.083294612349  0.063635382686  0.638112537959  0  0  0
0.416670662691  0.063597718533  0.304803385956  0  0  0
0.416631068878  0.063601854404  0.971449936030  0  0  0
0.749957766414  0.063617709426  0.638121415407  0  0  0
0.083274594571  0.063940266999  0.193695167505  0  0  0
0.083806803186  0.064560008038  0.859724319999  0  0  0
0.417149624474  0.064545978034  0.526409570806  0  0  0
0.750454854798  0.064547359884  0.193083857821  0  0  0
0.750477634836  0.064544516074  0.859736046478  0  0  0
0.249685068075  0.064683432611  0.415546431137  0  0  0
0.583030133048  0.064668650699  0.082228157242  0  0  0
0.583031604850  0.064672334878  0.748898778980  0  0  0
0.916353304939  0.064654514898  0.415573896843  0  0  0
0.249795682017  0.063834065444  0.304910021645  0  0  0
0.249749903120  0.063587003777  0.971320844063  0  0  0
0.583098894775  0.063484804283  0.638066355895  0  0  0
0.916396855618  0.063460961357  0.304735121531  0  0  0
0.916446120031  0.063496201844  0.971393407751  0  0  0
0.249983097744  0.064094818609  0.526795713569  0  0  0
0.583335798045  0.064086610427  0.193469292587  0  0  0
0.583327010420  0.064089677081  0.860139884426  0  0  0
0.916657055866  0.064094273992  0.526812037589  0  0  0
0.125000000002  0.130439996605  0.027776665995  0  0  0
0.125000000002  0.130439996605  0.694443332661  0  0  0
0.458333333336  0.130439996605  0.361109999329  0  0  0
0.791666666668  0.130439996605  0.027776665995  0  0  0
0.791666666668  0.130439996605  0.694443332661  0  0  0
0.125000000002  0.130439996605  0.583333333283  0  0  0
0.458333333336  0.130439996605  0.249999999951  0  0  0
0.458333333336  0.130439996605  0.916666666615  0  0  0
0.791666666668  0.130439996605  0.583333333283  0  0  0
0.125000000002  0.130439996605  0.138889998190  0  0  0
0.125000000002  0.130439996605  0.805556664856  0  0  0
0.458333333336  0.130439996605  0.472223331524  0  0  0
0.791666666668  0.130439996605  0.138889998190  0  0  0
0.791666666668  0.130439996605  0.805556664856  0  0  0
0.291666666699  0.130439996605  0.361109999329  0  0  0
0.625000000033  0.130439996605  0.027776665995  0  0  0
0.625000000033  0.130439996605  0.694443332661  0  0  0
0.958333333365  0.130439996605  0.361109999329  0  0  0
0.291666666699  0.130439996605  0.249999999951  0  0  0
0.291666666699  0.130439996605  0.916666666615  0  0  0
0.625000000033  0.130439996605  0.583333333283  0  0  0
0.958333333365  0.130439996605  0.249999999951  0  0  0
0.958333333365  0.130439996605  0.916666666615  0  0  0
0.291666666699  0.130439996605  0.472223331524  0  0  0
0.625000000033  0.130439996605  0.138889998190  0  0  0
0.625000000033  0.130439996605  0.805556664856  0  0  0
0.958333333365  0.130439996605  0.472223331524  0  0  0
0.041666666673  0.130439996605  0.027776665995  0  0  0
0.041666666673  0.130439996605  0.694443332661  0  0  0
0.375000000007  0.130439996605  0.361109999329  0  0  0
0.708333333341  0.130439996605  0.027776665995  0  0  0
0.708333333341  0.130439996605  0.694443332661  0  0  0
0.041666666673  0.130439996605  0.583333333283  0  0  0
0.375000000007  0.130439996605  0.249999999951  0  0  0
0.375000000007  0.130439996605  0.916666666615  0  0  0
0.708333333341  0.130439996605  0.583333333283  0  0  0
0.041666666673  0.130439996605  0.138889998190  0  0  0
0.041666666673  0.130439996605  0.805556664856  0  0  0
0.375000000007  0.130439996605  0.472223331524  0  0  0
0.708333333341  0.130439996605  0.138889998190  0  0  0
0.708333333341  0.130439996605  0.805556664856  0  0  0
0.208333333328  0.130439996605  0.361109999329  0  0  0
0.541666666661  0.130439996605  0.027776665995  0  0  0
0.541666666661  0.130439996605  0.694443332661  0  0  0
0.874999999995  0.130439996605  0.361109999329  0  0  0
0.208333333328  0.130439996605  0.249999999951  0  0  0
0.208333333328  0.130439996605  0.916666666615  0  0  0
0.541666666661  0.130439996605  0.583333333283  0  0  0
0.874999999995  0.130439996605  0.249999999951  0  0  0
0.874999999995  0.130439996605  0.916666666615  0  0  0
0.208333333328  0.130439996605  0.472223331524  0  0  0
0.541666666661  0.130439996605  0.138889998190  0  0  0
0.541666666661  0.130439996605  0.805556664856  0  0  0
0.874999999995  0.130439996605  0.472223331524  0  0  0
0.999959265009  0.196711657142  0.082544273703  0  0  0
0.000134018795  0.196663303118  0.749220166675  0  0  0
0.333479368636  0.196689988450  0.415922604140  0  0  0
0.666799116034  0.196676931787  0.082551461296  0  0  0
0.666797708564  0.196660947797  0.749217572763  0  0  0
0.333264926825  0.197003130121  0.638280256150  0  0  0
0.666600838556  0.197037037868  0.304948510411  0  0  0
0.666602970276  0.197023335134  0.971614712224  0  0  0
0.999939135301  0.197003827075  0.638279262312  0  0  0
0.333202473770  0.196666188449  0.193715333105  0  0  0
0.333285062442  0.196617497761  0.860423047813  0  0  0
0.666618803807  0.196607372852  0.527083174187  0  0  0
0.999882648147  0.196824858994  0.193700642561  0  0  0
0.999950068174  0.196602405073  0.860423091568  0  0  0
0.166742886872  0.200602389024  0.418469356059  0  0  0
0.500086815260  0.200546018860  0.085169852885  0  0  0
0.500077092938  0.200535031802  0.751840642864  0  0  0
0.833401936010  0.200536102852  0.418504910789  0  0  0
0.166409455675  0.197324995834  0.305017761569  0  0  0
0.166389072487  0.197506701292  0.971584236687  0  0  0
0.499729014556  0.197803501356  0.638457620441  0  0  0
0.833038921566  0.197832131353  0.305121957129  0  0  0
0.833078489696  0.197804488014  0.971787032124  0  0  0
0.166050367559  0.193829347988  0.525636651927  0  0  0
0.499408921208  0.193838627452  0.192279913505  0  0  0
0.499392398936  0.193827448473  0.858962721953  0  0  0
0.832722916136  0.193823718324  0.525634474071  0  0  0
0.083366048313  0.197101919106  0.082832997341  0  0  0
0.083933858029  0.198172484159  0.750365167264  0  0  0
0.417274636968  0.198176311980  0.417039844983  0  0  0
0.750600528033  0.198177492185  0.083688658643  0  0  0
0.750591082656  0.198162403989  0.750365087009  0  0  0
0.083286748766  0.197266855552  0.638137851524  0  0  0
0.416661399059  0.197303978411  0.304828270200  0  0  0
0.416622777964  0.197299641534  0.971474738981  0  0  0
0.749949569058  0.197284199246  0.638146621157  0  0  0
0.083298321115  0.196997722635  0.193723771801  0  0  0
0.083810304885  0.196358999523  0.859745755954  0  0  0
0.417153081427  0.196371776652  0.526430935959  0  0  0
0.750457592027  0.196370254198  0.193105204209  0  0  0
0.750480785007  0.196373174411  0.859757432157  0  0  0
0.249695046881  0.196204988895  0.415539570379  0  0  0
0.583040351235  0.196217159900  0.082223070802  0  0  0
0.583041782698  0.196212621287  0.748893341370  0  0  0
0.916363130981  0.196231475759  0.415568768625  0  0  0
0.249796367495  0.197072245632  0.304915579079  0  0  0
0.249764540006  0.197320165050  0.971341363731  0  0  0
0.583113072554  0.197422451056  0.638087030574  0  0  0
0.916413819976  0.197445872535  0.304754947327  0  0  0
0.916460199508  0.197410665471  0.971413930760  0  0  0
0.249996418731  0.196799708114  0.526799621198  0  0  0
0.583348418278  0.196807496356  0.193473263066  0  0  0
0.583339865519  0.196804224291  0.860143667962  0  0  0
0.916669779750  0.196799513162  0.526815979310  0  0  0
0.124812800647  0.271428388538  0.031165647034  0  0  0
0.124908999034  0.271143220722  0.698522820570  0  0  0
0.458224927432  0.271147698581  0.365217099340  0  0  0
0.791568104500  0.271177001842  0.031869069491  0  0  0
0.791563088272  0.271148898869  0.698549961284  0  0  0
0.124110729014  0.268310806749  0.583991146160  0  0  0
0.457458699588  0.268268739436  0.250631787585  0  0  0
0.457454101139  0.268309593057  0.917321758366  0  0  0
0.790780040153  0.268301672684  0.583993755855  0  0  0
0.125535287399  0.271057795892  0.142257833881  0  0  0
0.125562529564  0.272841500621  0.808206892064  0  0  0
0.458902176584  0.272782052339  0.474857468915  0  0  0
0.792238376295  0.272748327109  0.141526445972  0  0  0
0.792228443334  0.272779600972  0.808181692188  0  0  0
0.291613116582  0.271145140109  0.364537845636  0  0  0
0.624986903463  0.271210898770  0.031159514951  0  0  0
0.624988110702  0.271208283281  0.697831006404  0  0  0
0.958365134149  0.271137707673  0.364477545070  0  0  0
0.291236749106  0.271250057652  0.253241630511  0  0  0
0.291417644543  0.271698948394  0.920146558894  0  0  0
0.624752862521  0.271700042398  0.586799051240  0  0  0
0.958150104140  0.271614360093  0.253417732018  0  0  0
0.958078542601  0.271745958604  0.920128332365  0  0  0
0.292830875601  0.272165168004  0.475907879796  0  0  0
0.626176176751  0.272201458432  0.142547111812  0  0  0
0.626184401981  0.272185462380  0.809226974005  0  0  0
0.959506229777  0.272190594402  0.475927241767  0  0  0
0.041658054041  0.271394770509  0.031079572262  0  0  0
0.041744734937  0.271202552506  0.697973630519  0  0  0
0.375021772141  0.271138150515  0.364630713988  0  0  0
0.708407524139  0.271204014617  0.031302182533  0  0  0
0.708401789822  0.271218606516  0.697973923611  0  0  0
0.040789848508  0.271737847369  0.586696743168  0  0  0
0.374096736347  0.271599556085  0.253325176446  0  0  0
0.374127933151  0.271759954535  0.920033366691  0  0  0
0.707449648424  0.271739345353  0.586702298567  0  0  0
0.042051640761  0.271561462436  0.142419093855  0  0  0
0.040910070359  0.272041173648  0.809650622327  0  0  0
0.374241276018  0.272062618114  0.476342779966  0  0  0
0.707580585507  0.271989673148  0.142990244001  0  0  0
0.707562844021  0.272059280335  0.809640224834  0  0  0
0.208292265624  0.271417956177  0.364763111844  0  0  0