ATOMIC_SPECIES
Al  Al_mass  Al_pesudopotential
As  As_mass  As_pesudopotential
H  H_mass  H_pesudopotential
O  O_mass  O_pesudopotential

NUMERICAL_ORBITAL
Al_orbital
As_orbital
H_orbital
O_orbital

LATTICE_CONSTANT
1.889727000000

LATTICE_VECTORS
48.685183592614  0.000000000000  0.000000000000
0.000000000000  30.388122000006  0.000000000000
0.000000000000  0.000000000000  51.638435192407

ATOMIC_POSITIONS
Direct

Al
0
540
0.000122218336  0.013713222449  0.008699354468  0  0  0
0.000122914670  0.013713164056  0.675365775536  0  0  0
0.333455755187  0.013713180109  0.342032536805  0  0  0
0.666789870548  0.013713515777  0.008699528796  0  0  0
0.666789167211  0.013713955538  0.675366279505  0  0  0
0.332855788993  0.013883468830  0.563871563828  0  0  0
0.666189668615  0.013882878820  0.230536862281  0  0  0
0.666189064388  0.013883152855  0.897204257052  0  0  0
0.999522531942  0.013883183641  0.563870677646  0  0  0
0.000480069955  0.013502772365  0.119305014932  0  0  0
0.000481015083  0.013502836383  0.785971821224  0  0  0
0.333813674172  0.013502999340  0.452638774425  0  0  0
0.667148318455  0.013503107953  0.119304816490  0  0  0
0.667147165653  0.013503182776  0.785971837857  0  0  0
0.166556415830  0.013306564106  0.342826873555  0  0  0
0.499890198796  0.013306126100  0.009492958620  0  0  0
0.499890017191  0.013307444642  0.676161056750  0  0  0
0.833223302433  0.013306057737  0.342826573401  0  0  0
0.164732502005  0.007859798444  0.223448592381  0  0  0
0.164732596378  0.007859524274  0.890114057050  0  0  0
0.498066125987  0.007860166479  0.556782533104  0  0  0
0.831398974868  0.007860046870  0.223446670856  0  0  0
0.831398935747  0.007859844827  0.890114843727  0  0  0
0.162203900274  0.978878855041  0.437552353798  0  0  0
0.495537233606  0.978878855041  0.104219020464  0  0  0
0.495537233606  0.978878855041  0.770885687132  0  0  0
0.828870566940  0.978878855041  0.437552353798  0  0  0
0.083488433636  0.013711807144  0.008920366819  0  0  0
0.083489107487  0.013711929194  0.675587274423  0  0  0
0.416821760114  0.013711423583  0.342253413203  0  0  0
0.750156200003  0.013712590860  0.008921635204  0  0  0
0.750155345964  0.013712346587  0.675587510201  0  0  0
0.081029919725  0.013952975856  0.562671441664  0  0  0
0.414363271727  0.013952447130  0.229337755944  0  0  0
0.414363790878  0.013952763206  0.896004336250  0  0  0
0.747696523789  0.013953199908  0.562671728239  0  0  0
0.082921418929  0.011732893322  0.121204367674  0  0  0
0.082923147214  0.011732925697  0.787870986222  0  0  0
0.416255002554  0.011733031017  0.454538159558  0  0  0
0.749591288178  0.011733246922  0.121204150387  0  0  0
0.749589012437  0.011733220579  0.787871173463  0  0  0
0.249809780319  0.013704711788  0.342240197581  0  0  0
0.583143629997  0.013704633867  0.008906711070  0  0  0
0.583143016975  0.013705568162  0.675574122498  0  0  0
0.916476683126  0.013704552486  0.342240238793  0  0  0
0.250716034306  0.014569762199  0.230443845016  0  0  0
0.250716188610  0.014569488275  0.897109765455  0  0  0
0.584049492835  0.014570681560  0.563778024470  0  0  0
0.917382022651  0.014569378417  0.230442778074  0  0  0
0.917382255406  0.014569650259  0.897110424687  0  0  0
0.253221056820  0.014502221738  0.452123432092  0  0  0
0.586555361680  0.014502246105  0.118789551817  0  0  0
0.586553995068  0.014502443883  0.785456516130  0  0  0
0.919888099855  0.014502416704  0.452123321750  0  0  0
0.126425568805  0.061814750885  0.055768772730  0  0  0
0.126426755649  0.061814155835  0.722436399157  0  0  0
0.459759021711  0.061814371419  0.389102275027  0  0  0
0.793094043999  0.061814206250  0.055770852791  0  0  0
0.793092645597  0.061814635128  0.722436157090  0  0  0
0.124988776096  0.061624885014  0.610177683166  0  0  0
0.458322013966  0.061624418200  0.276843990176  0  0  0
0.458322514297  0.061624901584  0.943510902824  0  0  0
0.791655193994  0.061624931689  0.610177728488  0  0  0
0.124979929612  0.060272637810  0.163274334908  0  0  0
0.124980598113  0.060271731373  0.829939655060  0  0  0
0.458313487712  0.060272646615  0.496608081039  0  0  0
0.791647506294  0.060271030138  0.163272030763  0  0  0
0.791646740554  0.060272282403  0.829940249723  0  0  0
0.291662290115  0.061301857856  0.387953123893  0  0  0
0.624996564938  0.061301943248  0.054619814115  0  0  0
0.624995494094  0.061302202393  0.721286536380  0  0  0
0.958329484420  0.061301972686  0.387953251504  0  0  0
0.291550389873  0.061334438902  0.276912346102  0  0  0
0.291551009621  0.061334430233  0.943578585025  0  0  0
0.624883801698  0.061334893838  0.610245910776  0  0  0
0.958216988577  0.061334430174  0.276912366616  0  0  0
0.958216729539  0.061334480248  0.943579128959  0  0  0
0.291852886484  0.061188916187  0.498815564173  0  0  0
0.625187127660  0.061188845887  0.165481651964  0  0  0
0.625186048620  0.061189007571  0.832148437785  0  0  0
0.958519933384  0.061188999070  0.498815171062  0  0  0
0.042394210264  0.061162610811  0.055074096713  0  0  0
0.042395295691  0.061162627905  0.721740781935  0  0  0
0.375727625310  0.061162559156  0.388407402732  0  0  0
0.709062680785  0.061162850235  0.055074521901  0  0  0
0.709061346061  0.061162900012  0.721740884225  0  0  0
0.041563868702  0.061222737918  0.610077872141  0  0  0
0.374896925652  0.061222475570  0.276744575797  0  0  0
0.374897769820  0.061222643672  0.943411181829  0  0  0
0.708230265314  0.061222929757  0.610078160671  0  0  0
0.041710726993  0.061181418891  0.165556226238  0  0  0
0.041711710082  0.061181512050  0.832222487009  0  0  0
0.375044284318  0.061181612443  0.498889859977  0  0  0
0.708379359237  0.061181611132  0.165555394437  0  0  0
0.708377955055  0.061181667536  0.832222619253  0  0  0
0.206388896246  0.061273889830  0.388563593508  0  0  0
0.539723019069  0.061274146138  0.055229862821  0  0  0
0.539721973671  0.061274159255  0.721897335270  0  0  0
0.873055959027  0.061273948785  0.388563606811  0  0  0
0.207821826263  0.061458820098  0.277113257845  0  0  0
0.207822075381  0.061458832147  0.943778974759  0  0  0
0.541155322263  0.061459338220  0.610446959507  0  0  0
0.874488295029  0.061458720593  0.277112652520  0  0  0
0.874488120750  0.061458934785  0.943779983143  0  0  0
0.208209677538  0.063225757323  0.499089311501  0  0  0
0.541543727784  0.063226008378  0.165755966400  0  0  0
0.541542892725  0.063225571642  0.832421845161  0  0  0
0.874876577730  0.063225858041  0.499089177634  0  0  0
0.000000000000  0.130439996605  0.000000000000  0  0  0
0.000000000000  0.130439996605  0.666666666668  0  0  0
0.333333333332  0.130439996605  0.333333333332  0  0  0
0.666666666668  0.130439996605  0.000000000000  0  0  0
0.666666666668  0.130439996605  0.666666666668  0  0  0
0.000000000000  0.130439996605  0.555556674713  0  0  0
0.333333333332  0.130439996605  0.222223341380  0  0  0
0.333333333332  0.130439996605  0.888890008047  0  0  0
0.666666666668  0.130439996605  0.555556674713  0  0  0
0.000000000000  0.130439996605  0.111110001801  0  0  0
0.000000000000  0.130439996605  0.777776668467  0  0  0
0.333333333332  0.130439996605  0.444443335133  0  0  0
0.666666666668  0.130439996605  0.111110001801  0  0  0
0.666666666668  0.130439996605  0.777776668467  0  0  0
0.166666666675  0.130439996605  0.333333333332  0  0  0
0.500000000007  0.130439996605  0.000000000000  0  0  0
0.500000000007  0.130439996605  0.666666666668  0  0  0
0.833333333341  0.130439996605  0.333333333332  0  0  0
0.166666666675  0.130439996605  0.222223341380  0  0  0
0.166666666675  0.130439996605  0.888890008047  0  0  0
0.500000000007  0.130439996605  0.555556674713  0  0  0
0.833333333341  0.130439996605  0.222223341380  0  0  0
0.833333333341  0.130439996605  0.888890008047  0  0  0
0.166666666675  0.130439996605  0.444443335133  0  0  0
0.500000000007  0.130439996605  0.111110001801  0  0  0
0.500000000007  0.130439996605  0.777776668467  0  0  0
0.833333333341  0.130439996605  0.444443335133  0  0  0
0.083333333327  0.130439996605  0.000000000000  0  0  0
0.083333333327  0.130439996605  0.666666666668  0  0  0
0.416666666661  0.130439996605  0.333333333332  0  0  0
0.749999999993  0.130439996605  0.000000000000  0  0  0
0.749999999993  0.130439996605  0.666666666668  0  0  0
0.083333333327  0.130439996605  0.555556674713  0  0  0
0.416666666661  0.130439996605  0.222223341380  0  0  0
0.416666666661  0.130439996605  0.888890008047  0  0  0
0.749999999993  0.130439996605  0.555556674713  0  0  0
0.083333333327  0.130439996605  0.111110001801  0  0  0
0.083333333327  0.130439996605  0.777776668467  0  0  0
0.416666666661  0.130439996605  0.444443335133  0  0  0
0.749999999993  0.130439996605  0.111110001801  0  0  0
0.749999999993  0.130439996605  0.777776668467  0  0  0
0.250000000089  0.130439996605  0.333333333332  0  0  0
0.583333333421  0.130439996605  0.000000000000  0  0  0
0.583333333421  0.130439996605  0.666666666668  0  0  0
0.916666666755  0.130439996605  0.333333333332  0  0  0
0.250000000089  0.130439996605  0.222223341380  0  0  0
0.250000000089  0.130439996605  0.888890008047  0  0  0
0.583333333421  0.130439996605  0.555556674713  0  0  0
0.916666666755  0.130439996605  0.222223341380  0  0  0
0.916666666755  0.130439996605  0.888890008047  0  0  0
0.250000000089  0.130439996605  0.444443335133  0  0  0
0.583333333421  0.130439996605  0.111110001801  0  0  0
0.583333333421  0.130439996605  0.777776668467  0  0  0
0.916666666755  0.130439996605  0.444443335133  0  0  0
0.126415349059  0.199094118185  0.055751549541  0  0  0
0.126416544282  0.199094766793  0.722419183612  0  0  0
0.459748796711  0.199094486702  0.389085046828  0  0  0
0.793083845117  0.199094759286  0.055753651362  0  0  0
0.793082435975  0.199094276512  0.722418940363  0  0  0
0.124978630238  0.199201878708  0.610212984756  0  0  0
0.458311868047  0.199202323445  0.276879292407  0  0  0
0.458312370583  0.199201876776  0.943546200946  0  0  0
0.791645049640  0.199201840401  0.610213027695  0  0  0
0.124977378879  0.200603899724  0.163281306374  0  0  0
0.124978052394  0.200604835665  0.829946620369  0  0  0
0.458310940838  0.200603867243  0.496615058662  0  0  0
0.791644960650  0.200605608667  0.163278976253  0  0  0
0.791644194402  0.200604289591  0.829947214375  0  0  0
0.291668638185  0.199600796450  0.387942121373  0  0  0
0.625002916430  0.199600728024  0.054608807973  0  0  0
0.625001840825  0.199600476540  0.721275534226  0  0  0
0.958335834979  0.199600697074  0.387942248089  0  0  0
0.291558722875  0.199556691022  0.276916593005  0  0  0
0.291559349512  0.199556705835  0.943582833414  0  0  0
0.624892138230  0.199556247519  0.610250163212  0  0  0
0.958225319945  0.199556710313  0.276916614080  0  0  0
0.958225061436  0.199556659264  0.943583378619  0  0  0
0.291863951735  0.199691086634  0.498816250982  0  0  0
0.625198197217  0.199691174128  0.165482324488  0  0  0
0.625197111453  0.199691019340  0.832149117893  0  0  0
0.958530997861  0.199691021434  0.498815852745  0  0  0
0.042395027204  0.199736268858  0.055068139744  0  0  0
0.042396112364  0.199736259120  0.721734828933  0  0  0
0.375728435400  0.199736308661  0.388401446334  0  0  0
0.709063509525  0.199736060544  0.055068567846  0  0  0
0.709062164796  0.199735998468  0.721734930118  0  0  0
0.041561395810  0.199659747159  0.610087920996  0  0  0
0.374894452084  0.199659993929  0.276754622561  0  0  0
0.374895297100  0.199659851196  0.943421232721  0  0  0
0.708227793915  0.199659559617  0.610088212703  0  0  0
0.041718663498  0.199697436510  0.165566602110  0  0  0
0.041719658319  0.199697355444  0.832232860029  0  0  0
0.375052221530  0.199697239866  0.498900233948  0  0  0
0.708387314792  0.199697273526  0.165565767189  0  0  0
0.708385899506  0.199697206770  0.832232992703  0  0  0
0.206402718228  0.199615031204  0.388556209911  0  0  0
0.539736848417  0.199614774120  0.055222468294  0  0  0
0.539735788980  0.199614800742  0.721889963522  0  0  0
0.873069783671  0.199614986725  0.388556224350  0  0  0
0.207837638384  0.199367015671  0.277147737667  0  0  0
0.207837891757  0.199366998082  0.943813451040  0  0  0
0.541171136568  0.199366502599  0.610481442060  0  0  0
0.874504105718  0.199367129780  0.277147128879  0  0  0
0.874503931081  0.199366913456  0.943814465144  0  0  0
0.208218475623  0.197636928256  0.499105127386  0  0  0
0.541552526570  0.197636643991  0.165771784299  0  0  0
0.541551687188  0.197637140399  0.832437656949  0  0  0
0.874885372355  0.197636830267  0.499104990721  0  0  0
0.000124220435  0.247236641844  0.008704824075  0  0  0
0.000124923965  0.247236699526  0.675371240704  0  0  0
0.333457758614  0.247236678269  0.342038002139  0  0  0
0.666791881036  0.247236357077  0.008704999812  0  0  0
0.666791172794  0.247235912810  0.675371748931  0  0  0
0.332871426675  0.247038063502  0.563878961990  0  0  0
0.666205312229  0.247038663363  0.230544252728  0  0  0
0.666204702737  0.247038396718  0.897211650616  0  0  0
0.999538171799  0.247038358968  0.563878069287  0  0  0
0.000492831424  0.247396493371  0.119300756101  0  0  0
0.000493784120  0.247396427746  0.785967563468  0  0  0
0.333826434751  0.247396254962  0.452634517817  0  0  0
0.667161096457  0.247396170130  0.119300556281  0  0  0
0.667159927749  0.247396102154  0.785967577939  0  0  0
0.166556643043  0.247596364063  0.342852540562  0  0  0
0.499890425424  0.247596823525  0.009518614748  0  0  0
0.499890242191  0.247595493400  0.676186737003  0  0  0
0.833223531218  0.247596876912  0.342852241583  0  0  0
0.164719373266  0.252897643495  0.223514649792  0  0  0
0.164719469775  0.252897928552  0.890180097735  0  0  0
0.498052999886  0.252897278159  0.556848581946  0  0  0
0.831385842019  0.252897412957  0.223512706698  0  0  0
0.831385804289  0.252897611668  0.890180895504  0  0  0
0.162216414359  0.281865510018  0.437579288246  0  0  0
0.495549747691  0.281865510018  0.104245954912  0  0  0
0.495549747691  0.281865510018  0.770912621578  0  0  0
0.828883081025  0.281865510018  0.437579288246  0  0  0
0.083486307544  0.247229999944  0.008932221647  0  0  0
0.083486982884  0.247229878490  0.675599130111  0  0  0
0.416819627243  0.247230371556  0.342265260457  0  0  0
0.750154086893  0.247229244666  0.008933502562  0  0  0
0.750153225158  0.247229466326  0.675599367866  0  0  0
0.081042379797  0.246926209121  0.562719865329  0  0  0
0.414375734398  0.246926733568  0.229386172874  0  0  0
0.414376254353  0.246926438791  0.896052752332  0  0  0
0.747708984386  0.246925991138  0.562720150171  0  0  0
0.082930408578  0.249147102028  0.121207214379  0  0  0
0.082932157559  0.249147068509  0.787873832973  0  0  0
0.416263992605  0.249146946472  0.454541008847  0  0  0
0.749600333198  0.249146787171  0.121206998653  0  0  0
0.749598016393  0.249146787860  0.787874014460  0  0  0
0.249816867895  0.247230945828  0.342252521878  0  0  0
0.583150720216  0.247231057353  0.008919029919  0  0  0
0.583150096269  0.247230110290  0.675586454527  0  0  0
0.916483769881  0.247231118057  0.342252564330  0  0  0
0.250754470737  0.246283894804  0.230462362463  0  0  0
0.250754633678  0.246284167689  0.897128279575  0  0  0
0.584087940071  0.246282953837  0.563796549366  0  0  0
0.917420449405  0.246284288068  0.230461286163  0  0  0
0.917420689292  0.246284021703  0.897128938098  0  0  0
0.253241600726  0.246384896378  0.452114359340  0  0  0
0.586575917553  0.246384883598  0.118780473921  0  0  0
0.586574529649  0.246384692544  0.785447441611  0  0  0
0.919908643871  0.246384714759  0.452114246217  0  0  0
0.124895151860  0.989830763762  0.031893688040  0  0  0
0.124895509808  0.989831189149  0.698560532428  0  0  0
0.458228474273  0.989830832230  0.365226600066  0  0  0
0.791562351463  0.989831453575  0.031894859020  0  0  0
0.791561806767  0.989831122479  0.698560788506  0  0  0
0.124095872509  0.992583453246  0.583949022150  0  0  0
0.457429333759  0.992583146726  0.250615254672  0  0  0
0.457429614758  0.992583550899  0.917282257292  0  0  0
0.790762542924  0.992583518012  0.583949138695  0  0  0
0.125396351614  0.987984214588  0.141388454581  0  0  0
0.125396877590  0.987984851274  0.808054420933  0  0  0
0.458729413947  0.987984847914  0.474722156100  0  0  0
0.792064116735  0.987984872766  0.141387050373  0  0  0
0.792063413843  0.987984569377  0.808054671171  0  0  0
0.291681983499  0.989792947590  0.364495325807  0  0  0
0.625015732105  0.989793092231  0.031161960496  0  0  0
0.625015364046  0.989793430773  0.697828832617  0  0  0
0.958348944012  0.989793071871  0.364495457508  0  0  0
0.291405244081  0.989282899948  0.253451952116  0  0  0
0.291405595106  0.989282754601  0.920118696002  0  0  0
0.624738779680  0.989283204618  0.586785888320  0  0  0
0.958071640171  0.989282858536  0.253451962277  0  0  0
0.958071547294  0.989282874049  0.920118890111  0  0  0
0.292762509768  0.988727346204  0.475894428482  0  0  0
0.626096478116  0.988727392227  0.142560438690  0  0  0
0.626095750616  0.988727748752  0.809227334883  0  0  0
0.959429592664  0.988727536975  0.475894178973  0  0  0
0.041706617994  0.989780628844  0.031299542195  0  0  0
0.041706957960  0.989780786274  0.697966172132  0  0  0
0.375039869748  0.989780574080  0.364632786758  0  0  0
0.708373950297  0.989781103921  0.031299781790  0  0  0
0.708373378531  0.989781056621  0.697966362324  0  0  0
0.040803628217  0.989244165197  0.586646350665  0  0  0
0.374137022700  0.989243949913  0.253312793171  0  0  0
0.374137519927  0.989244095115  0.919979701045  0  0  0
0.707470349437  0.989244324957  0.586646683485  0  0  0
0.040802115290  0.988806334977  0.142916700269  0  0  0
0.040802501585  0.988806615976  0.809583465216  0  0  0
0.374135104712  0.988806385804  0.476250573542  0  0  0
0.707469844487  0.988806933403  0.142916260268  0  0  0
0.707469081978  0.988806820218  0.809583356772  0  0  0
0.208402460483  0.989355808504  0.364883839503  0  0  0
0.541736158470  0.989355660106  0.031550496584  0  0  0
0.541735877610  0.989356259668  0.698217706812  0  0  0
0.875069365810  0.989355747474  0.364883911324  0  0  0
0.206681639863  0.992060297088  0.250183718864  0  0  0
0.206681765539  0.992060105011  0.916850185322  0  0  0
0.540015287488  0.992060556898  0.583517731251  0  0  0
0.873348036323  0.992060287422  0.250183183157  0  0  0
0.873347950986  0.992060364344  0.916850432189  0  0  0
0.206691079315  0.998216667109  0.468774741674  0  0  0
0.540024412649  0.998216667109  0.135441408340  0  0  0
0.540024412649  0.998216667109  0.802108075006  0  0  0
0.873357745983  0.998216667109  0.468774741674  0  0  0
0.000106406190  0.064273400150  0.082571226809  0  0  0
0.000106878253  0.064273352785  0.749237838158  0  0  0
0.333439707712  0.064273290687  0.415904674533  0  0  0
0.666773880488  0.064273566806  0.082571190086  0  0  0
0.666773210059  0.064273572719  0.749237835518  0  0  0
0.333281106132  0.063952309736  0.638237441667  0  0  0
0.666614611109  0.063952086191  0.304903702623  0  0  0
0.666614284734  0.063952249328  0.971570612860  0  0  0
0.999947530607  0.063952267108  0.638237038549  0  0  0
0.333275562511  0.064336271841  0.193725765097  0  0  0
0.333275920055  0.064336237554  0.860392237052  0  0  0
0.666609067029  0.064336280059  0.527059563346  0  0  0
0.999941438678  0.064336107225  0.193725936106  0  0  0
0.999941610674  0.064336131565  0.860392568976  0  0  0
0.166751363438  0.060393900438  0.418551212154  0  0  0
0.500085090524  0.060394027514  0.085218019896  0  0  0
0.500084987786  0.060393771825  0.751884966662  0  0  0
0.833418325753  0.060393917827  0.418551332823  0  0  0
0.166406864985  0.063076056781  0.305128361739  0  0  0
0.166407004647  0.063076155448  0.971794279781  0  0  0
0.499740474297  0.063076097906  0.638462136445  0  0  0
0.833073602960  0.063075936344  0.305128082815  0  0  0
0.833073370219  0.063076148377  0.971795083831  0  0  0
0.165986761664  0.067005687349  0.525567907792  0  0  0
0.499320346824  0.067005878557  0.192234434153  0  0  0
0.499320341898  0.067005771195  0.858900764611  0  0  0
0.832653593278  0.067005734483  0.525567902414  0  0  0
0.083868390840  0.062820392734  0.083635215117  0  0  0
0.083868977105  0.062820160323  0.750301944590  0  0  0
0.417201509288  0.062820158126  0.416968633131  0  0  0
0.750536230949  0.062820415888  0.083635501373  0  0  0
0.750535296541  0.062820382780  0.750302020160  0  0  0
0.083300334159  0.063643340950  0.638144633441  0  0  0
0.416633535416  0.063643250100  0.304811082095  0  0  0
0.416634121036  0.063643169046  0.971478099677  0  0  0
0.749966834325  0.063643298236  0.638144804525  0  0  0
0.083842572963  0.064626219997  0.193014614790  0  0  0
0.083842784392  0.064626142388  0.859680818111  0  0  0
0.417175702151  0.064626094262  0.526348370249  0  0  0
0.750509966132  0.064626334778  0.193013701361  0  0  0
0.750509398670  0.064626347574  0.859680961182  0  0  0
0.249701718523  0.064712603784  0.415548165932  0  0  0
0.583035539469  0.064712827465  0.082214651134  0  0  0
0.583034874474  0.064712842734  0.748881457061  0  0  0
0.916368720713  0.064712698984  0.415548158561  0  0  0
0.249774555524  0.063519998142  0.304748384526  0  0  0
0.249774984183  0.063520013601  0.971414642166  0  0  0
0.583108063314  0.063520150196  0.638082030995  0  0  0
0.916441240675  0.063519878038  0.304748363140  0  0  0
0.916440919595  0.063520010375  0.971415151328  0  0  0
0.249969781272  0.064165234541  0.526795372502  0  0  0
0.583303455215  0.064165389743  0.193461614182  0  0  0
0.583302912312  0.064165325289  0.860128212595  0  0  0
0.916636606896  0.064165317425  0.526795132480  0  0  0
0.125000000002  0.130439996605  0.027776665995  0  0  0
0.125000000002  0.130439996605  0.694443332661  0  0  0
0.458333333336  0.130439996605  0.361109999329  0  0  0
0.791666666668  0.130439996605  0.027776665995  0  0  0
0.791666666668  0.130439996605  0.694443332661  0  0  0
0.125000000002  0.130439996605  0.583333333283  0  0  0
0.458333333336  0.130439996605  0.249999999951  0  0  0
0.458333333336  0.130439996605  0.916666666615  0  0  0
0.791666666668  0.130439996605  0.583333333283  0  0  0
0.125000000002  0.130439996605  0.138889998190  0  0  0
0.125000000002  0.130439996605  0.805556664856  0  0  0
0.458333333336  0.130439996605  0.472223331524  0  0  0
0.791666666668  0.130439996605  0.138889998190  0  0  0
0.791666666668  0.130439996605  0.805556664856  0  0  0
0.291666666699  0.130439996605  0.361109999329  0  0  0
0.625000000033  0.130439996605  0.027776665995  0  0  0
0.625000000033  0.130439996605  0.694443332661  0  0  0
0.958333333365  0.130439996605  0.361109999329  0  0  0
0.291666666699  0.130439996605  0.249999999951  0  0  0
0.291666666699  0.130439996605  0.916666666615  0  0  0
0.625000000033  0.130439996605  0.583333333283  0  0  0
0.958333333365  0.130439996605  0.249999999951  0  0  0
0.958333333365  0.130439996605  0.916666666615  0  0  0
0.291666666699  0.130439996605  0.472223331524  0  0  0
0.625000000033  0.130439996605  0.138889998190  0  0  0
0.625000000033  0.130439996605  0.805556664856  0  0  0
0.958333333365  0.130439996605  0.472223331524  0  0  0
0.041666666673  0.130439996605  0.027776665995  0  0  0
0.041666666673  0.130439996605  0.694443332661  0  0  0
0.375000000007  0.130439996605  0.361109999329  0  0  0
0.708333333341  0.130439996605  0.027776665995  0  0  0
0.708333333341  0.130439996605  0.694443332661  0  0  0
0.041666666673  0.130439996605  0.583333333283  0  0  0
0.375000000007  0.130439996605  0.249999999951  0  0  0
0.375000000007  0.130439996605  0.916666666615  0  0  0
0.708333333341  0.130439996605  0.583333333283  0  0  0
0.041666666673  0.130439996605  0.138889998190  0  0  0
0.041666666673  0.130439996605  0.805556664856  0  0  0
0.375000000007  0.130439996605  0.472223331524  0  0  0
0.708333333341  0.130439996605  0.138889998190  0  0  0
0.708333333341  0.130439996605  0.805556664856  0  0  0
0.208333333328  0.130439996605  0.361109999329  0  0  0
0.541666666661  0.130439996605  0.027776665995  0  0  0
0.541666666661  0.130439996605  0.694443332661  0  0  0
0.874999999995  0.130439996605  0.361109999329  0  0  0
0.208333333328  0.130439996605  0.249999999951  0  0  0
0.208333333328  0.130439996605  0.916666666615  0  0  0
0.541666666661  0.130439996605  0.583333333283  0  0  0
0.874999999995  0.130439996605  0.249999999951  0  0  0
0.874999999995  0.130439996605  0.916666666615  0  0  0
0.208333333328  0.130439996605  0.472223331524  0  0  0
0.541666666661  0.130439996605  0.138889998190  0  0  0
0.541666666661  0.130439996605  0.805556664856  0  0  0
0.874999999995  0.130439996605  0.472223331524  0  0  0
0.000108866277  0.196623742803  0.082568620318  0  0  0
0.000109336829  0.196623790887  0.749235233028  0  0  0
0.333442165848  0.196623846915  0.415902069331  0  0  0
0.666776343326  0.196623582820  0.082568583777  0  0  0
0.666775670314  0.196623579435  0.749235232012  0  0  0
0.333281778403  0.196963822350  0.638254263895  0  0  0
0.666615283984  0.196964044185  0.304920519538  0  0  0
0.666614955802  0.196963887504  0.971587433490  0  0  0
0.999948200796  0.196963863181  0.638253855929  0  0  0
0.333282024552  0.196572698602  0.193737290272  0  0  0
0.333282392430  0.196572738535  0.860403763094  0  0  0
0.666615537163  0.196572692341  0.527071091638  0  0  0
0.999947895712  0.196572867538  0.193737462219  0  0  0
0.999948070270  0.196572839434  0.860404095329  0  0  0
0.166748921875  0.200459344392  0.418528201307  0  0  0
0.500082655720  0.200459205898  0.085195012799  0  0  0
0.500082548568  0.200459505202  0.751861970175  0  0  0
0.833415888162  0.200459335006  0.418528326867  0  0  0
0.166409768448  0.197820439250  0.305151667907  0  0  0
0.166409908391  0.197820338681  0.971817581864  0  0  0
0.499743378783  0.197820412374  0.638485452281  0  0  0
0.833076506780  0.197820569634  0.305151391407  0  0  0
0.833076272023  0.197820356179  0.971818389455  0  0  0
0.165986906962  0.193850840541  0.525571340102  0  0  0
0.499320491061  0.193850645746  0.192237863717  0  0  0
0.499320487254  0.193850770288  0.858904192472  0  0  0
0.832653737529  0.193850798556  0.525571333183  0  0  0
0.083869886772  0.198071968573  0.083633210468  0  0  0
0.083870474337  0.198072205401  0.750299935812  0  0  0
0.417202998583  0.198072187184  0.416966622086  0  0  0
0.750537737779  0.198071975367  0.083633500297  0  0  0
0.750536797108  0.198071989630  0.750300014104  0  0  0
0.083290014851  0.197260113851  0.638171423199  0  0  0
0.416623214552  0.197260195009  0.304837867846  0  0  0
0.416623805409  0.197260298158  0.971504892689  0  0  0
0.749956516921  0.197260164179  0.638171597084  0  0  0
0.083848930963  0.196295635885  0.193036313716  0  0  0
0.083849142028  0.196295724863  0.859702520153  0  0  0
0.417182054629  0.196295760433  0.526370077612  0  0  0
0.750516329321  0.196295541525  0.193035393563  0  0  0
0.750515759906  0.196295521999  0.859702659659  0  0  0
0.249712813233  0.196172602531  0.415543082924  0  0  0
0.583046637397  0.196172377777  0.082209566690  0  0  0
0.583045964782  0.196172381182  0.748876376451  0  0  0
0.916379816263  0.196172515948  0.415543076465  0  0  0
0.249791641384  0.197389520718  0.304770652537  0  0  0
0.249792074127  0.197389508497  0.971436911737  0  0  0
0.583125150054  0.197389380102  0.638104305896  0  0  0
0.916458325768  0.197389650243  0.304770633595  0  0  0
0.916458004174  0.197389517633  0.971437422654  0  0  0
0.249984442249  0.196731865858  0.526800897306  0  0  0
0.583318115256  0.196731709073  0.193467134456  0  0  0
0.583317568468  0.196731787096  0.860133733433  0  0  0
0.916651264217  0.196731788516  0.526800654976  0  0  0
0.124895545725  0.271118747756  0.031903531338  0  0  0
0.124895909532  0.271118301572  0.698570375550  0  0  0
0.458228868644  0.271118644908  0.365236431688  0  0  0
0.791562755813  0.271118060106  0.031904719367  0  0  0
0.791562203633  0.271118393188  0.698570637054  0  0  0
0.124103053474  0.268239759916  0.584020571469  0  0  0
0.457436514657  0.268240065980  0.250686800738  0  0  0
0.457436799434  0.268239675197  0.917353800413  0  0  0
0.790769724312  0.268239702052  0.584020685708  0  0  0
0.125404767036  0.272893370657  0.141401485773  0  0  0
0.125405292333  0.272892691056  0.808067443937  0  0  0
0.458737814013  0.272892694530  0.474735195490  0  0  0
0.792072550519  0.272892716038  0.141400057065  0  0  0
0.792071836214  0.272893006051  0.808067692509  0  0  0
0.291685953651  0.271152157208  0.364508899016  0  0  0
0.625019707824  0.271152034287  0.031175533629  0  0  0
0.625019334340  0.271151694605  0.697842407409  0  0  0
0.958352916823  0.271152044998  0.364509030434  0  0  0
0.291423435245  0.271631485146  0.253466778793  0  0  0
0.291423793900  0.271631638607  0.920133522254  0  0  0
0.624756976892  0.271631190646  0.586800718865  0  0  0
0.958089828226  0.271631530279  0.253466788009  0  0  0
0.958089736536  0.271631516261  0.920133717184  0  0  0
0.292775629319  0.272153765277  0.475894622882  0  0  0
0.626109603503  0.272153736826  0.142560626266  0  0  0
0.626108865620  0.272153379157  0.809227524189  0  0  0
0.959442714440  0.272153585651  0.475894369169  0  0  0
0.041706557281  0.271160909455  0.031314753649  0  0  0
0.041706900068  0.271160741547  0.697981384019  0  0  0
0.375039806063  0.271160945164  0.364647995723  0  0  0
0.708373897571  0.271160438401  0.031314995398  0  0  0
0.708373321348  0.271160485862  0.697981573708  0  0  0
0.040810739378  0.271660676338  0.586671959886  0  0  0
0.374144136490  0.271660887520  0.253338400933  0  0  0
0.374144637326  0.271660758056  0.920005308238  0  0  0
0.707477464500  0.271660525575  0.586672293662  0  0  0
0.040813521389  0.272068861845  0.142920318967  0  0  0
0.040813908669  0.272068574390  0.809587085182  0  0  0
0.374146501343  0.272068799245  0.476254196720  0  0  0
0.707481262683  0.272068265742  0.142919875752  0  0  0
0.707480493202  0.272068383463  0.809586972610  0  0  0
0.208405822148  0.271560516772  0.364898397905  0  0  0