%BLOCK LATTICE_CART
   2.805799707700000   0.000000000000000   0.000000000000000
   1.402899853850000   2.429893824799152   0.000000000000000
   0.000000000000003   0.000000000000002  51.343174630914916
%END BLOCK LATTICE_CART
%BLOCK POSITIONS_FRAC
    Al   1.000000000000000   1.000000000000000   0.000015525084455
    Al   0.333333333300000   0.333333333300000   0.045454757863708
    Al   0.666666666700000   0.666666666700000   0.090908856958359
    Al   0.000000000000000   0.000000000000000   0.136348021385574
    Al   0.333333333300000   0.333333333300000   0.181802636247375
    Al   1.000000000000000   1.000000000000000   0.227288252099208
    Al   0.333333333300000   0.333333333300000   0.272742863748129
    Al   0.666666666700000   0.666666666700000   0.318182028176140
    Al   0.000000000000000   0.000000000000000   0.363636126515484
    Al   0.333333333300000   0.333333333300000   0.409075364671628
    Al   0.666666666700000   0.666666666700000   0.454545446016249
    Al   0.333333333300000   0.333333333300000   0.500015534077892
    Al   1.000000000000000   1.000000000000000   0.545454776629944
    Al   0.666666666700000   0.666666666700000   0.590908883235847
    Al   0.333333333300000   0.333333333300000   0.636348052882404
    Al   0.000000000000000   0.000000000000000   0.681802670080374
    Al   0.333333333300000   0.333333333300000   0.727288285889655
    Al   1.000000000000000   1.000000000000000   0.772742895056072
    Al   0.666666666700000   0.666666666700000   0.818182054030952
    Al   0.333333333300000   0.333333333300000   0.863636144729430
    Al   0.000000000000000   0.000000000000000   0.909075373010697
    Al   0.666666666700000   0.666666666700000   0.954545445681766
%END BLOCK POSITIONS_FRAC
%BLOCK SPECIES_POT
    Al al.lda.recpot                                                                          
%END BLOCK SPECIES_POT
%BLOCK ION_OPTIMIZATION
           0           0           1
           0           0           1
           0           0           1
           0           0           1
           0           0           1
           0           0           1
           0           0           1
           0           0           1
           0           0           1
           0           0           1
           0           0           1
           0           0           1
           0           0           1
           0           0           1
           0           0           1
           0           0           1
           0           0           1
           0           0           1
           0           0           1
           0           0           1
           0           0           1
           0           0           1
%END BLOCK ION_OPTIMIZATION
