%BLOCK LATTICE_CART
0.000000000000    3.097562935360    3.097562935360    
3.097562935360    0.000000000000    3.097562935360    
3.097562935360    3.097562935360    0.000000000000    
%END BLOCK LATTICE_CART
%BLOCK POSITIONS_FRAC
Al    0.000000000000    0.000000000000    0.000000000000
Sb    0.250000000000    0.250000000000    0.250000000000
%END BLOCK POSITIONS_FRAC
%BLOCK SPECIES_POT
Al al.gga.recpot
Sb sb.gga.recpot
%END BLOCK SPECIES_POT
