Transformation
1
17.00000000000000  0.00000000000000  0.00000000000000
0.00000000000000  17.99999999999999  0.00000000000000
0.00000000000000  0.00000000000000  107.51220699999998
  C
  1000
Direct
0.64254600000000  0.47069700000000  0.99908900000000  T  T  T
0.64338100000000  0.42587900000000  0.00999300000000  T  T  T
0.64411300000000  0.43797500000000  0.02257900000000  T  T  T
0.63711600000000  0.49828100000000  0.02971800000000  T  T  T
0.63707300000000  0.49844200000000  0.05285600000000  T  T  T
0.64282500000000  0.46840800000000  0.04267300000000  T  T  T
0.64364300000000  0.45982900000000  0.06415300000000  T  T  T
0.63521600000000  0.50493400000000  0.07242400000000  T  T  T
0.63697100000000  0.49882000000000  0.08389900000000  T  T  T
0.64409100000000  0.43729500000000  0.08926800000000  T  T  T
0.64406100000000  0.43647500000000  0.10412300000000  T  T  T
0.63406700000000  0.50859900000000  0.11064600000000  T  T  T
0.63290800000000  0.51208000000000  0.12446800000000  T  T  T
0.64416200000000  0.44907900000000  0.13164100000000  T  T  T
0.64401400000000  0.45354200000000  0.14573700000000  T  T  T
0.62956600000000  0.52114300000000  0.15155100000000  T  T  T
0.62885900000000  0.52291200000000  0.16575300000000  T  T  T
0.64409900000000  0.45136100000000  0.17276100000000  T  T  T
0.64415600000000  0.44934300000000  0.18632000000000  T  T  T
0.63209100000000  0.51441600000000  0.19307400000000  T  T  T
0.63239800000000  0.51354800000000  0.20670700000000  T  T  T
0.64421200000000  0.44526600000000  0.21324700000000  T  T  T
0.64421000000000  0.44316600000000  0.22667600000000  T  T  T
0.63402800000000  0.50872000000000  0.23346600000000  T  T  T
0.63475900000000  0.50642200000000  0.24649200000000  T  T  T
0.64361000000000  0.42862200000000  0.25334100000000  T  T  T
0.64353900000000  0.42773100000000  0.26561600000000  T  T  T
0.63915100000000  0.49001500000000  0.27278200000000  T  T  T
0.63809500000000  0.49448500000000  0.29485900000000  T  T  T
0.64348500000000  0.46181300000000  0.28577100000000  T  T  T
0.64336200000000  0.46322800000000  0.30787700000000  T  T  T
0.63084300000000  0.51782900000000  0.31484300000000  T  T  T
0.63133800000000  0.51649600000000  0.32709900000000  T  T  T
0.64419700000000  0.44709800000000  0.33382900000000  T  T  T
0.64420400000000  0.44647000000000  0.34660900000000  T  T  T
0.63204600000000  0.51454300000000  0.35320800000000  T  T  T
0.63218500000000  0.51415300000000  0.36658100000000  T  T  T
0.64421400000000  0.44476700000000  0.37333200000000  T  T  T
0.64421400000000  0.44444400000000  0.38666700000000  T  T  T
0.63283700000000  0.51228500000000  0.39333300000000  T  T  T
0.63283700000000  0.51228500000000  0.40666700000000  T  T  T
0.64421400000000  0.44444400000000  0.41333300000000  T  T  T
0.64421400000000  0.44444400000000  0.42666700000000  T  T  T
0.63283700000000  0.51228500000000  0.43333300000000  T  T  T
0.63279300000000  0.51241200000000  0.44662200000000  T  T  T
0.64421400000000  0.44444400000000  0.45333300000000  T  T  T
0.64421400000000  0.44453400000000  0.46666200000000  T  T  T
0.63285000000000  0.51224800000000  0.47325300000000  T  T  T
0.63253100000000  0.51316700000000  0.48665400000000  T  T  T
0.64420800000000  0.44596700000000  0.49339100000000  T  T  T
0.64420700000000  0.44616300000000  0.50659200000000  T  T  T
0.63128700000000  0.51663500000000  0.51354200000000  T  T  T
0.63129300000000  0.51662000000000  0.52691000000000  T  T  T
0.64421200000000  0.44541900000000  0.53354300000000  T  T  T
0.64421400000000  0.44454200000000  0.54636600000000  T  T  T
0.63223700000000  0.51400600000000  0.55346200000000  T  T  T
0.63305400000000  0.51165200000000  0.56652600000000  T  T  T
0.64420000000000  0.44690000000000  0.57277900000000  T  T  T
0.64412300000000  0.45060300000000  0.58507100000000  T  T  T
0.63152200000000  0.51599500000000  0.59157400000000  T  T  T
0.63477100000000  0.50638100000000  0.60326400000000  T  T  T
0.63770200000000  0.39284500000000  0.61404000000000  T  T  T
0.64255800000000  0.41828200000000  0.62617800000000  T  T  T
0.63765000000000  0.49624600000000  0.63196600000000  T  T  T
0.63755600000000  0.49661000000000  0.64417900000000  T  T  T
0.64370200000000  0.42988500000000  0.65122600000000  T  T  T
0.64421400000000  0.44417700000000  0.66281000000000  T  T  T
0.62694400000000  0.52748300000000  0.66424200000000  T  T  T
0.62470900000000  0.53247200000000  0.68730100000000  T  T  T
0.64355900000000  0.46092000000000  0.69131800000000  T  T  T
0.64420600000000  0.44259900000000  0.70390300000000  T  T  T
0.63619200000000  0.50162200000000  0.71421000000000  T  T  T
0.64127600000000  0.47923600000000  0.72857700000000  T  T  T
0.64011500000000  0.40339800000000  0.73228400000000  T  T  T
0.64207200000000  0.41471200000000  0.75378900000000  T  T  T
0.63927800000000  0.48944600000000  0.75215900000000  T  T  T
0.62952100000000  0.52125700000000  0.76302000000000  T  T  T
0.64364900000000  0.45974300000000  0.77298700000000  T  T  T
0.64354100000000  0.46114200000000  0.78593200000000  T  T  T
0.62837800000000  0.52408900000000  0.79262200000000  T  T  T
0.63059200000000  0.51849400000000  0.80583900000000  T  T  T
0.64421000000000  0.44577100000000  0.81242400000000  T  T  T
0.64421400000000  0.44485600000000  0.82521300000000  T  T  T
0.63381400000000  0.50937800000000  0.83115200000000  T  T  T
0.63137800000000  0.51638700000000  0.84260800000000  T  T  T
0.64415100000000  0.44956500000000  0.85097300000000  T  T  T
0.64410600000000  0.45112300000000  0.86351700000000  T  T  T
0.63164800000000  0.51565000000000  0.87013900000000  T  T  T
0.63073100000000  0.51812500000000  0.88262700000000  T  T  T
0.64410500000000  0.45117700000000  0.89016300000000  T  T  T
0.64418600000000  0.44787900000000  0.90354600000000  T  T  T
0.63207900000000  0.51445000000000  0.91189800000000  T  T  T
0.63485800000000  0.50610400000000  0.92541300000000  T  T  T
0.64405400000000  0.43629300000000  0.93105100000000  T  T  T
0.64414900000000  0.43925400000000  0.94446800000000  T  T  T
0.63245100000000  0.51339900000000  0.95164100000000  T  T  T
0.63513500000000  0.50520000000000  0.96429300000000  T  T  T
0.63672500000000  0.38916600000000  0.97587600000000  T  T  T
0.64122900000000  0.40937600000000  0.98924100000000  T  T  T
0.62039200000000  0.54125500000000  0.99889400000000  T  T  T
0.53485000000000  0.63067600000000  0.00763300000000  T  T  T
0.59152700000000  0.58362800000000  0.01114400000000  T  T  T
0.60507800000000  0.56635700000000  0.02564200000000  T  T  T
0.55872400000000  0.61453800000000  0.03483300000000  T  T  T
0.56338600000000  0.61084800000000  0.04930400000000  T  T  T
0.60728800000000  0.56317300000000  0.05599900000000  T  T  T
0.60810100000000  0.56196800000000  0.06838300000000  T  T  T
0.51613100000000  0.64060800000000  0.07227000000000  T  T  T
0.57690800000000  0.59894300000000  0.07610900000000  T  T  T
0.60777400000000  0.56245500000000  0.08871000000000  T  T  T
0.60054700000000  0.57253400000000  0.10289300000000  T  T  T
0.54951600000000  0.62127800000000  0.10967200000000  T  T  T
0.55508500000000  0.61728600000000  0.12347400000000  T  T  T
0.60265300000000  0.56971900000000  0.12982000000000  T  T  T
0.59569500000000  0.57868200000000  0.14257700000000  T  T  T
0.53356900000000  0.63142600000000  0.14440200000000  T  T  T
0.53226700000000  0.63217700000000  0.16750000000000  T  T  T
0.59472500000000  0.57986000000000  0.17274800000000  T  T  T
0.59803100000000  0.57577800000000  0.18662500000000  T  T  T
0.54771900000000  0.62251400000000  0.19364300000000  T  T  T
0.54866200000000  0.62186900000000  0.20680300000000  T  T  T
0.59987300000000  0.57341500000000  0.21334800000000  T  T  T
0.60051700000000  0.57257400000000  0.22672900000000  T  T  T
0.54899900000000  0.62163700000000  0.23343600000000  T  T  T
0.54986400000000  0.62103600000000  0.24676100000000  T  T  T
0.60369600000000  0.56829000000000  0.25350100000000  T  T  T
0.60624700000000  0.56468800000000  0.26701600000000  T  T  T
0.55775000000000  0.61528500000000  0.27401700000000  T  T  T
0.55558000000000  0.61691900000000  0.28707400000000  T  T  T
0.60483600000000  0.56669900000000  0.29629600000000  T  T  T
0.59792900000000  0.57590800000000  0.30774100000000  T  T  T
0.55319200000000  0.61867100000000  0.31218900000000  T  T  T
0.54372400000000  0.62517500000000  0.32394500000000  T  T  T
0.59634800000000  0.57788100000000  0.33306200000000  T  T  T
0.59474500000000  0.57983700000000  0.34597700000000  T  T  T
0.54276500000000  0.62579600000000  0.35295100000000  T  T  T
0.54674800000000  0.62317200000000  0.36658300000000  T  T  T
0.59972100000000  0.57361200000000  0.37315800000000  T  T  T
0.59991400000000  0.57336200000000  0.38663500000000  T  T  T
0.54861800000000  0.62189900000000  0.39327600000000  T  T  T
0.54867500000000  0.62186000000000  0.40666800000000  T  T  T
0.59982000000000  0.57348400000000  0.41333300000000  T  T  T
0.59979200000000  0.57352100000000  0.42669800000000  T  T  T
0.54827400000000  0.62213500000000  0.43325000000000  T  T  T
0.54791700000000  0.62238000000000  0.44646000000000  T  T  T
0.59991400000000  0.57336300000000  0.45320600000000  T  T  T
0.59975800000000  0.57356500000000  0.46643300000000  T  T  T
0.54744200000000  0.62270300000000  0.47279800000000  T  T  T
0.54480100000000  0.62446900000000  0.48612000000000  T  T  T
0.59755900000000  0.57637400000000  0.49330400000000  T  T  T
0.59647800000000  0.57772000000000  0.50670500000000  T  T  T
0.53991800000000  0.62760200000000  0.51337500000000  T  T  T
0.53730500000000  0.62920900000000  0.52729400000000  T  T  T
0.59306300000000  0.58183900000000  0.53429300000000  T  T  T
0.59585600000000  0.57848600000000  0.54760300000000  T  T  T
0.54633700000000  0.62344900000000  0.55684600000000  T  T  T
0.55615600000000  0.61648800000000  0.56874800000000  T  T  T
0.60031900000000  0.57283400000000  0.57377400000000  T  T  T
0.60114300000000  0.57174700000000  0.58628200000000  T  T  T
0.54857700000000  0.62192700000000  0.59364700000000  T  T  T
0.55035500000000  0.62069200000000  0.60635100000000  T  T  T
0.60479100000000  0.56676200000000  0.61234100000000  T  T  T
0.60768900000000  0.56258000000000  0.62529600000000  T  T  T
0.55540400000000  0.61704900000000  0.63300300000000  T  T  T
0.55907900000000  0.61426400000000  0.64652400000000  T  T  T
0.61319800000000  0.55400500000000  0.65176800000000  T  T  T
0.60889400000000  0.56077800000000  0.67479200000000  T  T  T
0.55111100000000  0.62016000000000  0.67665700000000  T  T  T
0.54213700000000  0.62620000000000  0.68927000000000  T  T  T
0.59408500000000  0.58062800000000  0.69549700000000  T  T  T
0.59927200000000  0.57419400000000  0.70888400000000  T  T  T
0.54801900000000  0.62231000000000  0.71572900000000  T  T  T
0.54152100000000  0.62659200000000  0.72885800000000  T  T  T
0.58556000000000  0.59023200000000  0.73920300000000  T  T  T
0.62745700000000  0.52628900000000  0.73927800000000  T  T  T
0.55526200000000  0.61715500000000  0.75054800000000  T  T  T
0.56070800000000  0.61299200000000  0.77431700000000  T  T  T
0.58718600000000  0.58848400000000  0.76372500000000  T  T  T
0.58489700000000  0.59093300000000  0.78734200000000  T  T  T
0.53755100000000  0.62906000000000  0.79510600000000  T  T  T
0.54155900000000  0.62656900000000  0.80742600000000  T  T  T
0.59752200000000  0.57642000000000  0.81317200000000  T  T  T
0.60144200000000  0.57134900000000  0.82511100000000  T  T  T
0.56066800000000  0.61302300000000  0.83331100000000  T  T  T
0.56632900000000  0.60841500000000  0.85491000000000  T  T  T
0.58736100000000  0.58829300000000  0.84506600000000  T  T  T
0.59350900000000  0.58131300000000  0.86604200000000  T  T  T
0.56134300000000  0.61248900000000  0.87498300000000  T  T  T
0.56727500000000  0.60761500000000  0.89644900000000  T  T  T
0.58872600000000  0.58679400000000  0.88592100000000  T  T  T
0.59294500000000  0.58197900000000  0.90792000000000  T  T  T
0.55347200000000  0.61846800000000  0.91614800000000  T  T  T
0.55759600000000  0.61540200000000  0.92749600000000  T  T  T
0.60188300000000  0.57075900000000  0.93329800000000  T  T  T
0.60225500000000  0.57025800000000  0.94603300000000  T  T  T
0.54890700000000  0.62170000000000  0.95321500000000  T  T  T
0.54757000000000  0.62261600000000  0.96685500000000  T  T  T
0.59948800000000  0.57391500000000  0.97371200000000  T  T  T
0.59233700000000  0.58269000000000  0.98866800000000  T  T  T
0.53159300000000  0.63256200000000  0.99420000000000  T  T  T
0.35530200000000  0.65740500000000  0.00564100000000  T  T  T
0.47689600000000  0.65518600000000  0.01707300000000  T  T  T
0.49303400000000  0.65012500000000  0.02966600000000  T  T  T
0.42734600000000  0.66348600000000  0.03643400000000  T  T  T
0.42491200000000  0.66362900000000  0.04962800000000  T  T  T
0.50382700000000  0.64602800000000  0.05678100000000  T  T  T
0.46890200000000  0.65724400000000  0.07864100000000  T  T  T
0.39431800000000  0.66336100000000  0.07715600000000  T  T  T
0.38400500000000  0.66240900000000  0.08871400000000  T  T  T
0.45220700000000  0.66063200000000  0.09161400000000  T  T  T
0.47956200000000  0.65443500000000  0.10454800000000  T  T  T
0.41164000000000  0.66398000000000  0.11330000000000  T  T  T
0.42126700000000  0.66379600000000  0.12676000000000  T  T  T
0.50246800000000  0.64657700000000  0.13147200000000  T  T  T
0.50134500000000  0.64702300000000  0.15466900000000  T  T  T
0.41945400000000  0.66386000000000  0.15663000000000  T  T  T
0.41123400000000  0.66397900000000  0.16868200000000  T  T  T
0.47947600000000  0.65446000000000  0.17478800000000  T  T  T
0.48332100000000  0.65331900000000  0.18743400000000  T  T  T
0.41461000000000  0.66396400000000  0.19378500000000  T  T  T
0.41239300000000  0.66397900000000  0.20673300000000  T  T  T
0.48363200000000  0.65322400000000  0.21345900000000  T  T  T
0.48331600000000  0.65332100000000  0.22668000000000  T  T  T
0.41158400000000  0.66398000000000  0.23328100000000  T  T  T
0.41225800000000  0.66397900000000  0.24666800000000  T  T  T
0.48621400000000  0.65241500000000  0.25346100000000  T  T  T
0.48770800000000  0.65193300000000  0.26673000000000  T  T  T
0.41449300000000  0.66396500000000  0.27351300000000  T  T  T
0.41588600000000  0.66394500000000  0.28658400000000  T  T  T
0.48957200000000  0.65131600000000  0.29320100000000  T  T  T
0.49153500000000  0.65064800000000  0.30535600000000  T  T  T
0.43298300000000  0.66306300000000  0.31264500000000  T  T  T
0.43332600000000  0.66303300000000  0.33490000000000  T  T  T
0.46644200000000  0.65782000000000  0.32552400000000  T  T  T
0.46684700000000  0.65772700000000  0.34762700000000  T  T  T
0.40897000000000  0.66396400000000  0.35490200000000  T  T  T
0.41206300000000  0.66398000000000  0.36729200000000  T  T  T
0.48330200000000  0.65332500000000  0.37347300000000  T  T  T
0.48420500000000  0.65304700000000  0.38666700000000  T  T  T
0.41203200000000  0.66398000000000  0.39333300000000  T  T  T
0.41154600000000  0.66398000000000  0.40648000000000  T  T  T
0.48359600000000  0.65323500000000  0.41333300000000  T  T  T
0.48333900000000  0.65331400000000  0.42645000000000  T  T  T
0.41172200000000  0.66398000000000  0.43273700000000  T  T  T
0.40939300000000  0.66396900000000  0.44561000000000  T  T  T
0.48354700000000  0.65325000000000  0.45276500000000  T  T  T
0.48249100000000  0.65357100000000  0.46554000000000  T  T  T
0.41332300000000  0.66397500000000  0.47114600000000  T  T  T
0.40232900000000  0.66379900000000  0.48296600000000  T  T  T
0.47388300000000  0.65599600000000  0.49217000000000  T  T  T
0.46924600000000  0.65716200000000  0.50574900000000  T  T  T
0.39600300000000  0.66347500000000  0.51242900000000  T  T  T
0.39478600000000  0.66339400000000  0.52550800000000  T  T  T
0.45951300000000  0.65929800000000  0.53327500000000  T  T  T
0.43607800000000  0.66277600000000  0.54712200000000  T  T  T
0.47605800000000  0.65541500000000  0.55574700000000  T  T  T
0.44360800000000  0.66191000000000  0.56847700000000  T  T  T
0.49378400000000  0.64985900000000  0.57546700000000  T  T  T
0.48819500000000  0.65177300000000  0.58739600000000  T  T  T
0.41366700000000  0.66397300000000  0.59336200000000  T  T  T
0.41034200000000  0.66397600000000  0.60658600000000  T  T  T
0.48479400000000  0.65286400000000  0.61347100000000  T  T  T
0.48657700000000  0.65229900000000  0.62651400000000  T  T  T
0.41463500000000  0.66396300000000  0.63344900000000  T  T  T
0.41558000000000  0.66395000000000  0.64692400000000  T  T  T
0.49286300000000  0.65018500000000  0.65407600000000  T  T  T
0.48947100000000  0.65135000000000  0.66779000000000  T  T  T
0.41116000000000  0.66397900000000  0.67404400000000  T  T  T
0.40713400000000  0.66393600000000  0.68782400000000  T  T  T
0.47909700000000  0.65456800000000  0.69497300000000  T  T  T
0.47777700000000  0.65494100000000  0.70807300000000  T  T  T
0.40617100000000  0.66391600000000  0.71447200000000  T  T  T
0.40769900000000  0.66394600000000  0.72775400000000  T  T  T
0.47648800000000  0.65529800000000  0.73409100000000  T  T  T
0.48151200000000  0.65386400000000  0.74717500000000  T  T  T
0.41696200000000  0.66392500000000  0.75431600000000  T  T  T
0.41590900000000  0.66394500000000  0.76749000000000  T  T  T
0.48572500000000  0.65257100000000  0.77624600000000  T  T  T
0.47471300000000  0.65577700000000  0.78874200000000  T  T  T
0.40368000000000  0.66384700000000  0.79429400000000  T  T  T
0.39719700000000  0.66354800000000  0.80800500000000  T  T  T
0.47182300000000  0.65652600000000  0.81521300000000  T  T  T
0.48021400000000  0.65424600000000  0.82914500000000  T  T  T
0.40515000000000  0.66389100000000  0.83950500000000  T  T  T
0.42004600000000  0.66384100000000  0.85207300000000  T  T  T
0.49581200000000  0.64912700000000  0.85851100000000  T  T  T
0.49759400000000  0.64846600000000  0.87151000000000  T  T  T
0.43523200000000  0.66285800000000  0.87837700000000  T  T  T
0.43142400000000  0.66319300000000  0.89192300000000  T  T  T
0.49545300000000  0.64925800000000  0.89964100000000  T  T  T
0.49644700000000  0.64889300000000  0.91221500000000  T  T  T
0.37813900000000  0.66167100000000  0.92125500000000  T  T  T
0.44725200000000  0.66140700000000  0.92172300000000  T  T  T
0.49572400000000  0.64915900000000  0.93242000000000  T  T  T
0.48397000000000  0.65312000000000  0.94586000000000  T  T  T
0.41065800000000  0.66397700000000  0.95208200000000  T  T  T
0.40826600000000  0.66395500000000  0.96600800000000  T  T  T
0.47899000000000  0.65459900000000  0.97334700000000  T  T  T
0.47172100000000  0.65655100000000  0.98728400000000  T  T  T
0.38887600000000  0.66291300000000  0.99250600000000  T  T  T
0.27852100000000  0.62433300000000  0.00394900000000  T  T  T
0.39328300000000  0.66328500000000  0.01584100000000  T  T  T
0.36213700000000  0.65891800000000  0.02858300000000  T  T  T
0.28596600000000  0.62905200000000  0.03374200000000  T  T  T
0.28177300000000  0.62644300000000  0.04737000000000  T  T  T
0.34847200000000  0.65568500000000  0.05541800000000  T  T  T
0.33905800000000  0.65296400000000  0.06832100000000  T  T  T
0.27304400000000  0.62060100000000  0.07363400000000  T  T  T
0.27005000000000  0.61846200000000  0.08769700000000  T  T  T
0.33009000000000  0.64998200000000  0.09433100000000  T  T  T
0.33443500000000  0.65147600000000  0.10737400000000  T  T  T
0.27522600000000  0.62211500000000  0.11405400000000  T  T  T
0.27712200000000  0.62340100000000  0.12763000000000  T  T  T
0.34863300000000  0.65572800000000  0.13449200000000  T  T  T
0.34842700000000  0.65567300000000  0.14814500000000  T  T  T
0.27901400000000  0.62465800000000  0.15510500000000  T  T  T
0.28757100000000  0.63001900000000  0.16944700000000  T  T  T
0.35044400000000  0.65620300000000  0.17430300000000  T  T  T
0.34901500000000  0.65583000000000  0.18690900000000  T  T  T
0.28490100000000  0.62840100000000  0.19118100000000  T  T  T
0.27306700000000  0.62061700000000  0.20553100000000  T  T  T
0.33845900000000  0.65277700000000  0.21315400000000  T  T  T
0.33748400000000  0.65246900000000  0.22638600000000  T  T  T
0.27320400000000  0.62071300000000  0.23317500000000  T  T  T
0.27506400000000  0.62200400000000  0.24688500000000  T  T  T
0.34064100000000  0.65345100000000  0.25342800000000  T  T  T
0.34115200000000  0.65360500000000  0.26686000000000  T  T  T
0.27556100000000  0.62234400000000  0.27372100000000  T  T  T
0.27611000000000  0.62271800000000  0.28727500000000  T  T  T
0.34331700000000  0.65424600000000  0.29369500000000  T  T  T
0.34847400000000  0.65568600000000  0.30725100000000  T  T  T
0.28281200000000  0.62710100000000  0.31449700000000  T  T  T
0.28213200000000  0.62667100000000  0.32807700000000  T  T  T
0.34894800000000  0.65581200000000  0.33674700000000  T  T  T
0.34069900000000  0.65346800000000  0.34863800000000  T  T  T
0.28433400000000  0.62805100000000  0.35423500000000  T  T  T
0.28217800000000  0.62670000000000  0.36671400000000  T  T  T
0.34202200000000  0.65386600000000  0.37369700000000  T  T  T
0.33970700000000  0.65316500000000  0.38633500000000  T  T  T
0.27387000000000  0.62117900000000  0.39251900000000  T  T  T
0.27309800000000  0.62063900000000  0.40555800000000  T  T  T
0.34159000000000  0.65373700000000  0.41269200000000  T  T  T
0.34104300000000  0.65357300000000  0.42568500000000  T  T  T
0.27953100000000  0.62499600000000  0.43121500000000  T  T  T
0.27152500000000  0.61952500000000  0.44306300000000  T  T  T
0.33573000000000  0.65190300000000  0.45169000000000  T  T  T
0.33734200000000  0.65242400000000  0.46410700000000  T  T  T
0.28388800000000  0.62777500000000  0.47194400000000  T  T  T
0.28636800000000  0.62929600000000  0.49477000000000  T  T  T
0.31758300000000  0.64515300000000  0.48478600000000  T  T  T
0.31504300000000  0.64407200000000  0.50698300000000  T  T  T
0.26378600000000  0.61374800000000  0.51461500000000  T  T  T
0.26873000000000  0.61749600000000  0.52547700000000  T  T  T
0.32473100000000  0.64801100000000  0.53103500000000  T  T  T
0.31419400000000  0.64370400000000  0.54229400000000  T  T  T
0.35538400000000  0.65742400000000  0.54979300000000  T  T  T
0.32044600000000  0.64632900000000  0.56181500000000  T  T  T
0.36320600000000  0.65913600000000  0.57167900000000  T  T  T
0.34397100000000  0.65443600000000  0.58522800000000  T  T  T
0.27382300000000  0.62114600000000  0.59085300000000  T  T  T
0.27128500000000  0.61935400000000  0.60536200000000  T  T  T
0.33911500000000  0.65298200000000  0.61288000000000  T  T  T
0.33888400000000  0.65291000000000  0.62645200000000  T  T  T
0.27451400000000  0.62162500000000  0.63303500000000  T  T  T
0.27482400000000  0.62183900000000  0.64655700000000  T  T  T
0.34197300000000  0.65385100000000  0.65356800000000  T  T  T
0.34077800000000  0.65349200000000  0.66704400000000  T  T  T
0.27389000000000  0.62119200000000  0.67349500000000  T  T  T
0.26916600000000  0.61781700000000  0.68726000000000  T  T  T
0.33081500000000  0.65023800000000  0.69456000000000  T  T  T
0.33210600000000  0.65068700000000  0.70818300000000  T  T  T
0.26975100000000  0.61824500000000  0.71683200000000  T  T  T
0.27810500000000  0.62405700000000  0.72884100000000  T  T  T
0.34035900000000  0.65336500000000  0.73452500000000  T  T  T
0.34158400000000  0.65373500000000  0.74751400000000  T  T  T
0.27597400000000  0.62262600000000  0.75410800000000  T  T  T
0.27527600000000  0.62215000000000  0.76660600000000  T  T  T
0.33965500000000  0.65314900000000  0.77362400000000  T  T  T
0.33527500000000  0.65175400000000  0.78688700000000  T  T  T
0.27128800000000  0.61935500000000  0.79267600000000  T  T  T
0.26705500000000  0.61625000000000  0.80508600000000  T  T  T
0.31854200000000  0.64555200000000  0.81285800000000  T  T  T
0.28616900000000  0.62917500000000  0.82555400000000  T  T  T
0.31242600000000  0.64292300000000  0.83649100000000  T  T  T
0.25734300000000  0.60853500000000  0.84920400000000  T  T  T
0.35667000000000  0.65772400000000  0.86061000000000  T  T  T
0.36764300000000  0.65998900000000  0.87251900000000  T  T  T
0.30910600000000  0.64141000000000  0.87805800000000  T  T  T
0.29981100000000  0.63684000000000  0.88910500000000  T  T  T
0.35324900000000  0.65691000000000  0.89714900000000  T  T  T
0.33366400000000  0.65121700000000  0.91016300000000  T  T  T
0.27099300000000  0.61914300000000  0.91350100000000  T  T  T
0.26703500000000  0.61623500000000  0.92668800000000  T  T  T
0.32637100000000  0.64862900000000  0.93156100000000  T  T  T
0.33670300000000  0.65221900000000  0.94538700000000  T  T  T
0.27362000000000  0.62100400000000  0.95259100000000  T  T  T
0.27399800000000  0.62126800000000  0.96576700000000  T  T  T
0.33474200000000  0.65157800000000  0.97232800000000  T  T  T
0.33093700000000  0.65028100000000  0.98507700000000  T  T  T
0.26932200000000  0.61793100000000  0.99167600000000  T  T  T
0.19046900000000  0.51163200000000  0.00672800000000  T  T  T
0.22712800000000  0.57781500000000  0.01293900000000  T  T  T
0.22934200000000  0.58050500000000  0.02630000000000  T  T  T
0.19208000000000  0.51619200000000  0.03368300000000  T  T  T
0.19268400000000  0.51782300000000  0.04704800000000  T  T  T
0.22657700000000  0.57713200000000  0.05366100000000  T  T  T
0.22529200000000  0.57551700000000  0.06680700000000  T  T  T
0.19124700000000  0.51387500000000  0.07347000000000  T  T  T
0.19074200000000  0.51242900000000  0.08689300000000  T  T  T
0.22268000000000  0.57213500000000  0.09372800000000  T  T  T
0.22239200000000  0.57175500000000  0.10721800000000  T  T  T
0.19094600000000  0.51301800000000  0.11357100000000  T  T  T
0.19083700000000  0.51270300000000  0.12710900000000  T  T  T
0.22595300000000  0.57635200000000  0.13428800000000  T  T  T
0.22545200000000  0.57572000000000  0.14836100000000  T  T  T
0.19096500000000  0.51307100000000  0.15466000000000  T  T  T
0.18714600000000  0.50094600000000  0.16897800000000  T  T  T
0.20576800000000  0.54615600000000  0.17998700000000  T  T  T
0.24577000000000  0.59812700000000  0.18011300000000  T  T  T
0.18598200000000  0.49664500000000  0.19101000000000  T  T  T
0.18763500000000  0.50265300000000  0.20567300000000  T  T  T
0.21754500000000  0.56506600000000  0.21239100000000  T  T  T
0.21889300000000  0.56698000000000  0.22674800000000  T  T  T
0.18848300000000  0.50549100000000  0.23598800000000  T  T  T
0.19230600000000  0.51680800000000  0.24818600000000  T  T  T
0.22496600000000  0.57510200000000  0.25380600000000  T  T  T
0.22539800000000  0.57565100000000  0.26719500000000  T  T  T
0.19138900000000  0.51427800000000  0.27375600000000  T  T  T
0.19063300000000  0.51211200000000  0.28695300000000  T  T  T
0.22467800000000  0.57473400000000  0.29400900000000  T  T  T
0.22487100000000  0.57498000000000  0.30728800000000  T  T  T
0.19067100000000  0.51222400000000  0.31384700000000  T  T  T
0.19071900000000  0.51236200000000  0.32766700000000  T  T  T
0.22704800000000  0.57771600000000  0.33482000000000  T  T  T
0.23293600000000  0.58469700000000  0.34912100000000  T  T  T
0.18177700000000  0.47631000000000  0.35719000000000  T  T  T
0.20257200000000  0.54016100000000  0.35905700000000  T  T  T
0.22879100000000  0.57984400000000  0.37088000000000  T  T  T
0.22066500000000  0.56943200000000  0.38473800000000  T  T  T
0.18814900000000  0.50439000000000  0.39174200000000  T  T  T
0.18989900000000  0.50993300000000  0.40575000000000  T  T  T
0.22444200000000  0.57443100000000  0.41197500000000  T  T  T
0.22738500000000  0.57813200000000  0.42460800000000  T  T  T
0.19774400000000  0.53011400000000  0.43211900000000  T  T  T
0.19845600000000  0.53168200000000  0.45494800000000  T  T  T
0.21405500000000  0.55989800000000  0.44502200000000  T  T  T
0.21730700000000  0.56472300000000  0.46811900000000  T  T  T
0.19102700000000  0.51325100000000  0.47605300000000  T  T  T
0.19131500000000  0.51407000000000  0.48859200000000  T  T  T
0.22344900000000  0.57314600000000  0.49691500000000  T  T  T
0.21836900000000  0.56624100000000  0.50889100000000  T  T  T
0.18951500000000  0.50876300000000  0.51493000000000  T  T  T
0.19076500000000  0.51249600000000  0.52923200000000  T  T  T
0.22602400000000  0.57644100000000  0.53381600000000  T  T  T
0.25429800000000  0.60593300000000  0.54543600000000  T  T  T
0.18369700000000  0.48686800000000  0.56287400000000  T  T  T
0.21240300000000  0.55733500000000  0.56717400000000  T  T  T
0.25099400000000  0.60300300000000  0.55921800000000  T  T  T
0.21809900000000  0.56585700000000  0.58319600000000  T  T  T
0.18704700000000  0.50059300000000  0.59048400000000  T  T  T
0.18705000000000  0.50060500000000  0.60473300000000  T  T  T
0.22021500000000  0.56881600000000  0.61190800000000  T  T  T
0.22094600000000  0.56981300000000  0.62596800000000  T  T  T
0.18932400000000  0.50817200000000  0.63257900000000  T  T  T
0.18946100000000  0.50859600000000  0.64588600000000  T  T  T
0.22346500000000  0.57316700000000  0.65300900000000  T  T  T
0.22274300000000  0.57221900000000  0.66619600000000  T  T  T
0.19013300000000  0.51063700000000  0.67238000000000  T  T  T
0.18926400000000  0.50798500000000  0.68430000000000  T  T  T
0.21414200000000  0.56003000000000  0.69219900000000  T  T  T
0.19793600000000  0.53054000000000  0.70474500000000  T  T  T
0.21336300000000  0.55883300000000  0.71473800000000  T  T  T
0.19691400000000  0.52823900000000  0.72726400000000  T  T  T
0.22677200000000  0.57737500000000  0.73515600000000  T  T  T
0.22419200000000  0.57410900000000  0.74709000000000  T  T  T
0.19004600000000  0.51037800000000  0.75331900000000  T  T  T
0.18986200000000  0.50982300000000  0.76637500000000  T  T  T
0.22313100000000  0.57273000000000  0.77311600000000  T  T  T
0.22272200000000  0.57219100000000  0.78596300000000  T  T  T
0.19034400000000  0.51126300000000  0.79276600000000  T  T  T