ATOMIC_SPECIES
C 12.011 C_ONCV_PBE-1.0.upf

NUMERICAL_ORBITAL
C_gga_8au_60Ry_2s2p1d.orb

LATTICE_CONSTANT
1

LATTICE_VECTORS
32.1253418058417  0.00000000000000  0.000000000000000
0.00000000000000  34.0150677944206  0.000000000000000
0.00000000000000  0.00000000000000  203.1686116573768

ATOMIC_POSITIONS
Direct

C
0
1000
0.6425460000  0.4706970000  0.9990890000  1  1  1
0.6433810000  0.4258790000  0.0099930000  1  1  1
0.6441130000  0.4379750000  0.0225790000  1  1  1
0.6371160000  0.4982810000  0.0297180000  1  1  1
0.6370730000  0.4984420000  0.0528560000  1  1  1
0.6428250000  0.4684080000  0.0426730000  1  1  1
0.6436430000  0.4598290000  0.0641530000  1  1  1
0.6352160000  0.5049340000  0.0724240000  1  1  1
0.6369710000  0.4988200000  0.0838990000  1  1  1
0.6440910000  0.4372950000  0.0892680000  1  1  1
0.6440610000  0.4364750000  0.1041230000  1  1  1
0.6340670000  0.5085990000  0.1106460000  1  1  1
0.6329080000  0.5120800000  0.1244680000  1  1  1
0.6441620000  0.4490790000  0.1316410000  1  1  1
0.6440140000  0.4535420000  0.1457370000  1  1  1
0.6295660000  0.5211430000  0.1515510000  1  1  1
0.6288590000  0.5229120000  0.1657530000  1  1  1
0.6440990000  0.4513610000  0.1727610000  1  1  1
0.6441560000  0.4493430000  0.1863200000  1  1  1
0.6320910000  0.5144160000  0.1930740000  1  1  1
0.6323980000  0.5135480000  0.2067070000  1  1  1
0.6442120000  0.4452660000  0.2132470000  1  1  1
0.6442100000  0.4431660000  0.2266760000  1  1  1
0.6340280000  0.5087200000  0.2334660000  1  1  1
0.6347590000  0.5064220000  0.2464920000  1  1  1
0.6436100000  0.4286220000  0.2533410000  1  1  1
0.6435390000  0.4277310000  0.2656160000  1  1  1
0.6391510000  0.4900150000  0.2727820000  1  1  1
0.6380950000  0.4944850000  0.2948590000  1  1  1
0.6434850000  0.4618130000  0.2857710000  1  1  1
0.6433620000  0.4632280000  0.3078770000  1  1  1
0.6308430000  0.5178290000  0.3148430000  1  1  1
0.6313380000  0.5164960000  0.3270990000  1  1  1
0.6441970000  0.4470980000  0.3338290000  1  1  1
0.6442040000  0.4464700000  0.3466090000  1  1  1
0.6320460000  0.5145430000  0.3532080000  1  1  1
0.6321850000  0.5141530000  0.3665810000  1  1  1
0.6442140000  0.4447670000  0.3733320000  1  1  1
0.6442140000  0.4444440000  0.3866670000  1  1  1
0.6328370000  0.5122850000  0.3933330000  1  1  1
0.6328370000  0.5122850000  0.4066670000  1  1  1
0.6442140000  0.4444440000  0.4133330000  1  1  1
0.6442140000  0.4444440000  0.4266670000  1  1  1
0.6328370000  0.5122850000  0.4333330000  1  1  1
0.6327930000  0.5124120000  0.4466220000  1  1  1
0.6442140000  0.4444440000  0.4533330000  1  1  1
0.6442140000  0.4445340000  0.4666620000  1  1  1
0.6328500000  0.5122480000  0.4732530000  1  1  1
0.6325310000  0.5131670000  0.4866540000  1  1  1
0.6442080000  0.4459670000  0.4933910000  1  1  1
0.6442070000  0.4461630000  0.5065920000  1  1  1
0.6312870000  0.5166350000  0.5135420000  1  1  1
0.6312930000  0.5166200000  0.5269100000  1  1  1
0.6442120000  0.4454190000  0.5335430000  1  1  1
0.6442140000  0.4445420000  0.5463660000  1  1  1
0.6322370000  0.5140060000  0.5534620000  1  1  1
0.6330540000  0.5116520000  0.5665260000  1  1  1
0.6442000000  0.4469000000  0.5727790000  1  1  1
0.6441230000  0.4506030000  0.5850710000  1  1  1
0.6315220000  0.5159950000  0.5915740000  1  1  1
0.6347710000  0.5063810000  0.6032640000  1  1  1
0.6377020000  0.3928450000  0.6140400000  1  1  1
0.6425580000  0.4182820000  0.6261780000  1  1  1
0.6376500000  0.4962460000  0.6319660000  1  1  1
0.6375560000  0.4966100000  0.6441790000  1  1  1
0.6437020000  0.4298850000  0.6512260000  1  1  1
0.6442140000  0.4441770000  0.6628100000  1  1  1
0.6269440000  0.5274830000  0.6642420000  1  1  1
0.6247090000  0.5324720000  0.6873010000  1  1  1
0.6435590000  0.4609200000  0.6913180000  1  1  1
0.6442060000  0.4425990000  0.7039030000  1  1  1
0.6361920000  0.5016220000  0.7142100000  1  1  1
0.6412760000  0.4792360000  0.7285770000  1  1  1
0.6401150000  0.4033980000  0.7322840000  1  1  1
0.6420720000  0.4147120000  0.7537890000  1  1  1
0.6392780000  0.4894460000  0.7521590000  1  1  1
0.6295210000  0.5212570000  0.7630200000  1  1  1
0.6436490000  0.4597430000  0.7729870000  1  1  1
0.6435410000  0.4611420000  0.7859320000  1  1  1
0.6283780000  0.5240890000  0.7926220000  1  1  1
0.6305920000  0.5184940000  0.8058390000  1  1  1
0.6442100000  0.4457710000  0.8124240000  1  1  1
0.6442140000  0.4448560000  0.8252130000  1  1  1
0.6338140000  0.5093780000  0.8311520000  1  1  1
0.6313780000  0.5163870000  0.8426080000  1  1  1
0.6441510000  0.4495650000  0.8509730000  1  1  1
0.6441060000  0.4511230000  0.8635170000  1  1  1
0.6316480000  0.5156500000  0.8701390000  1  1  1
0.6307310000  0.5181250000  0.8826270000  1  1  1
0.6441050000  0.4511770000  0.8901630000  1  1  1
0.6441860000  0.4478790000  0.9035460000  1  1  1
0.6320790000  0.5144500000  0.9118980000  1  1  1
0.6348580000  0.5061040000  0.9254130000  1  1  1
0.6440540000  0.4362930000  0.9310510000  1  1  1
0.6441490000  0.4392540000  0.9444680000  1  1  1
0.6324510000  0.5133990000  0.9516410000  1  1  1
0.6351350000  0.5052000000  0.9642930000  1  1  1
0.6367250000  0.3891660000  0.9758760000  1  1  1
0.6412290000  0.4093760000  0.9892410000  1  1  1
0.6203920000  0.5412550000  0.9988940000  1  1  1
0.5348500000  0.6306760000  0.0076330000  1  1  1
0.5915270000  0.5836280000  0.0111440000  1  1  1
0.6050780000  0.5663570000  0.0256420000  1  1  1
0.5587240000  0.6145380000  0.0348330000  1  1  1
0.5633860000  0.6108480000  0.0493040000  1  1  1
0.6072880000  0.5631730000  0.0559990000  1  1  1
0.6081010000  0.5619680000  0.0683830000  1  1  1
0.5161310000  0.6406080000  0.0722700000  1  1  1
0.5769080000  0.5989430000  0.0761090000  1  1  1
0.6077740000  0.5624550000  0.0887100000  1  1  1
0.6005470000  0.5725340000  0.1028930000  1  1  1
0.5495160000  0.6212780000  0.1096720000  1  1  1
0.5550850000  0.6172860000  0.1234740000  1  1  1
0.6026530000  0.5697190000  0.1298200000  1  1  1
0.5956950000  0.5786820000  0.1425770000  1  1  1
0.5335690000  0.6314260000  0.1444020000  1  1  1
0.5322670000  0.6321770000  0.1675000000  1  1  1
0.5947250000  0.5798600000  0.1727480000  1  1  1
0.5980310000  0.5757780000  0.1866250000  1  1  1
0.5477190000  0.6225140000  0.1936430000  1  1  1
0.5486620000  0.6218690000  0.2068030000  1  1  1
0.5998730000  0.5734150000  0.2133480000  1  1  1
0.6005170000  0.5725740000  0.2267290000  1  1  1
0.5489990000  0.6216370000  0.2334360000  1  1  1
0.5498640000  0.6210360000  0.2467610000  1  1  1
0.6036960000  0.5682900000  0.2535010000  1  1  1
0.6062470000  0.5646880000  0.2670160000  1  1  1
0.5577500000  0.6152850000  0.2740170000  1  1  1
0.5555800000  0.6169190000  0.2870740000  1  1  1
0.6048360000  0.5666990000  0.2962960000  1  1  1
0.5979290000  0.5759080000  0.3077410000  1  1  1
0.5531920000  0.6186710000  0.3121890000  1  1  1
0.5437240000  0.6251750000  0.3239450000  1  1  1
0.5963480000  0.5778810000  0.3330620000  1  1  1
0.5947450000  0.5798370000  0.3459770000  1  1  1
0.5427650000  0.6257960000  0.3529510000  1  1  1
0.5467480000  0.6231720000  0.3665830000  1  1  1
0.5997210000  0.5736120000  0.3731580000  1  1  1
0.5999140000  0.5733620000  0.3866350000  1  1  1
0.5486180000  0.6218990000  0.3932760000  1  1  1
0.5486750000  0.6218600000  0.4066680000  1  1  1
0.5998200000  0.5734840000  0.4133330000  1  1  1
0.5997920000  0.5735210000  0.4266980000  1  1  1
0.5482740000  0.6221350000  0.4332500000  1  1  1
0.5479170000  0.6223800000  0.4464600000  1  1  1
0.5999140000  0.5733630000  0.4532060000  1  1  1
0.5997580000  0.5735650000  0.4664330000  1  1  1
0.5474420000  0.6227030000  0.4727980000  1  1  1
0.5448010000  0.6244690000  0.4861200000  1  1  1
0.5975590000  0.5763740000  0.4933040000  1  1  1
0.5964780000  0.5777200000  0.5067050000  1  1  1
0.5399180000  0.6276020000  0.5133750000  1  1  1
0.5373050000  0.6292090000  0.5272940000  1  1  1
0.5930630000  0.5818390000  0.5342930000  1  1  1
0.5958560000  0.5784860000  0.5476030000  1  1  1
0.5463370000  0.6234490000  0.5568460000  1  1  1
0.5561560000  0.6164880000  0.5687480000  1  1  1
0.6003190000  0.5728340000  0.5737740000  1  1  1
0.6011430000  0.5717470000  0.5862820000  1  1  1
0.5485770000  0.6219270000  0.5936470000  1  1  1
0.5503550000  0.6206920000  0.6063510000  1  1  1
0.6047910000  0.5667620000  0.6123410000  1  1  1
0.6076890000  0.5625800000  0.6252960000  1  1  1
0.5554040000  0.6170490000  0.6330030000  1  1  1
0.5590790000  0.6142640000  0.6465240000  1  1  1
0.6131980000  0.5540050000  0.6517680000  1  1  1
0.6088940000  0.5607780000  0.6747920000  1  1  1
0.5511110000  0.6201600000  0.6766570000  1  1  1
0.5421370000  0.6262000000  0.6892700000  1  1  1
0.5940850000  0.5806280000  0.6954970000  1  1  1
0.5992720000  0.5741940000  0.7088840000  1  1  1
0.5480190000  0.6223100000  0.7157290000  1  1  1
0.5415210000  0.6265920000  0.7288580000  1  1  1
0.5855600000  0.5902320000  0.7392030000  1  1  1
0.6274570000  0.5262890000  0.7392780000  1  1  1
0.5552620000  0.6171550000  0.7505480000  1  1  1
0.5607080000  0.6129920000  0.7743170000  1  1  1
0.5871860000  0.5884840000  0.7637250000  1  1  1
0.5848970000  0.5909330000  0.7873420000  1  1  1
0.5375510000  0.6290600000  0.7951060000  1  1  1
0.5415590000  0.6265690000  0.8074260000  1  1  1
0.5975220000  0.5764200000  0.8131720000  1  1  1
0.6014420000  0.5713490000  0.8251110000  1  1  1
0.5606680000  0.6130230000  0.8333110000  1  1  1
0.5663290000  0.6084150000  0.8549100000  1  1  1
0.5873610000  0.5882930000  0.8450660000  1  1  1
0.5935090000  0.5813130000  0.8660420000  1  1  1
0.5613430000  0.6124890000  0.8749830000  1  1  1
0.5672750000  0.6076150000  0.8964490000  1  1  1
0.5887260000  0.5867940000  0.8859210000  1  1  1
0.5929450000  0.5819790000  0.9079200000  1  1  1
0.5534720000  0.6184680000  0.9161480000  1  1  1
0.5575960000  0.6154020000  0.9274960000  1  1  1
0.6018830000  0.5707590000  0.9332980000  1  1  1
0.6022550000  0.5702580000  0.9460330000  1  1  1
0.5489070000  0.6217000000  0.9532150000  1  1  1
0.5475700000  0.6226160000  0.9668550000  1  1  1
0.5994880000  0.5739150000  0.9737120000  1  1  1
0.5923370000  0.5826900000  0.9886680000  1  1  1
0.5315930000  0.6325620000  0.9942000000  1  1  1
0.3553020000  0.6574050000  0.0056410000  1  1  1
0.4768960000  0.6551860000  0.0170730000  1  1  1
0.4930340000  0.6501250000  0.0296660000  1  1  1
0.4273460000  0.6634860000  0.0364340000  1  1  1
0.4249120000  0.6636290000  0.0496280000  1  1  1
0.5038270000  0.6460280000  0.0567810000  1  1  1
0.4689020000  0.6572440000  0.0786410000  1  1  1
0.3943180000  0.6633610000  0.0771560000  1  1  1
0.3840050000  0.6624090000  0.0887140000  1  1  1
0.4522070000  0.6606320000  0.0916140000  1  1  1
0.4795620000  0.6544350000  0.1045480000  1  1  1
0.4116400000  0.6639800000  0.1133000000  1  1  1
0.4212670000  0.6637960000  0.1267600000  1  1  1
0.5024680000  0.6465770000  0.1314720000  1  1  1
0.5013450000  0.6470230000  0.1546690000  1  1  1
0.4194540000  0.6638600000  0.1566300000  1  1  1
0.4112340000  0.6639790000  0.1686820000  1  1  1
0.4794760000  0.6544600000  0.1747880000  1  1  1
0.4833210000  0.6533190000  0.1874340000  1  1  1
0.4146100000  0.6639640000  0.1937850000  1  1  1
0.4123930000  0.6639790000  0.2067330000  1  1  1
0.4836320000  0.6532240000  0.2134590000  1  1  1
0.4833160000  0.6533210000  0.2266800000  1  1  1
0.4115840000  0.6639800000  0.2332810000  1  1  1
0.4122580000  0.6639790000  0.2466680000  1  1  1
0.4862140000  0.6524150000  0.2534610000  1  1  1
0.4877080000  0.6519330000  0.2667300000  1  1  1
0.4144930000  0.6639650000  0.2735130000  1  1  1
0.4158860000  0.6639450000  0.2865840000  1  1  1
0.4895720000  0.6513160000  0.2932010000  1  1  1
0.4915350000  0.6506480000  0.3053560000  1  1  1
0.4329830000  0.6630630000  0.3126450000  1  1  1
0.4333260000  0.6630330000  0.3349000000  1  1  1
0.4664420000  0.6578200000  0.3255240000  1  1  1
0.4668470000  0.6577270000  0.3476270000  1  1  1
0.4089700000  0.6639640000  0.3549020000  1  1  1
0.4120630000  0.6639800000  0.3672920000  1  1  1
0.4833020000  0.6533250000  0.3734730000  1  1  1
0.4842050000  0.6530470000  0.3866670000  1  1  1
0.4120320000  0.6639800000  0.3933330000  1  1  1
0.4115460000  0.6639800000  0.4064800000  1  1  1
0.4835960000  0.6532350000  0.4133330000  1  1  1
0.4833390000  0.6533140000  0.4264500000  1  1  1
0.4117220000  0.6639800000  0.4327370000  1  1  1
0.4093930000  0.6639690000  0.4456100000  1  1  1
0.4835470000  0.6532500000  0.4527650000  1  1  1
0.4824910000  0.6535710000  0.4655400000  1  1  1
0.4133230000  0.6639750000  0.4711460000  1  1  1
0.4023290000  0.6637990000  0.4829660000  1  1  1
0.4738830000  0.6559960000  0.4921700000  1  1  1
0.4692460000  0.6571620000  0.5057490000  1  1  1
0.3960030000  0.6634750000  0.5124290000  1  1  1
0.3947860000  0.6633940000  0.5255080000  1  1  1
0.4595130000  0.6592980000  0.5332750000  1  1  1
0.4360780000  0.6627760000  0.5471220000  1  1  1
0.4760580000  0.6554150000  0.5557470000  1  1  1
0.4436080000  0.6619100000  0.5684770000  1  1  1
0.4937840000  0.6498590000  0.5754670000  1  1  1
0.4881950000  0.6517730000  0.5873960000  1  1  1
0.4136670000  0.6639730000  0.5933620000  1  1  1
0.4103420000  0.6639760000  0.6065860000  1  1  1
0.4847940000  0.6528640000  0.6134710000  1  1  1
0.4865770000  0.6522990000  0.6265140000  1  1  1
0.4146350000  0.6639630000  0.6334490000  1  1  1
0.4155800000  0.6639500000  0.6469240000  1  1  1
0.4928630000  0.6501850000  0.6540760000  1  1  1
0.4894710000  0.6513500000  0.6677900000  1  1  1
0.4111600000  0.6639790000  0.6740440000  1  1  1
0.4071340000  0.6639360000  0.6878240000  1  1  1
0.4790970000  0.6545680000  0.6949730000  1  1  1
0.4777770000  0.6549410000  0.7080730000  1  1  1
0.4061710000  0.6639160000  0.7144720000  1  1  1
0.4076990000  0.6639460000  0.7277540000  1  1  1
0.4764880000  0.6552980000  0.7340910000  1  1  1
0.4815120000  0.6538640000  0.7471750000  1  1  1
0.4169620000  0.6639250000  0.7543160000  1  1  1
0.4159090000  0.6639450000  0.7674900000  1  1  1
0.4857250000  0.6525710000  0.7762460000  1  1  1
0.4747130000  0.6557770000  0.7887420000  1  1  1
0.4036800000  0.6638470000  0.7942940000  1  1  1
0.3971970000  0.6635480000  0.8080050000  1  1  1
0.4718230000  0.6565260000  0.8152130000  1  1  1
0.4802140000  0.6542460000  0.8291450000  1  1  1
0.4051500000  0.6638910000  0.8395050000  1  1  1
0.4200460000  0.6638410000  0.8520730000  1  1  1
0.4958120000  0.6491270000  0.8585110000  1  1  1
0.4975940000  0.6484660000  0.8715100000  1  1  1
0.4352320000  0.6628580000  0.8783770000  1  1  1
0.4314240000  0.6631930000  0.8919230000  1  1  1
0.4954530000  0.6492580000  0.8996410000  1  1  1
0.4964470000  0.6488930000  0.9122150000  1  1  1
0.3781390000  0.6616710000  0.9212550000  1  1  1
0.4472520000  0.6614070000  0.9217230000  1  1  1
0.4957240000  0.6491590000  0.9324200000  1  1  1
0.4839700000  0.6531200000  0.9458600000  1  1  1
0.4106580000  0.6639770000  0.9520820000  1  1  1
0.4082660000  0.6639550000  0.9660080000  1  1  1
0.4789900000  0.6545990000  0.9733470000  1  1  1
0.4717210000  0.6565510000  0.9872840000  1  1  1
0.3888760000  0.6629130000  0.9925060000  1  1  1
0.2785210000  0.6243330000  0.0039490000  1  1  1
0.3932830000  0.6632850000  0.0158410000  1  1  1
0.3621370000  0.6589180000  0.0285830000  1  1  1
0.2859660000  0.6290520000  0.0337420000  1  1  1
0.2817730000  0.6264430000  0.0473700000  1  1  1
0.3484720000  0.6556850000  0.0554180000  1  1  1
0.3390580000  0.6529640000  0.0683210000  1  1  1
0.2730440000  0.6206010000  0.0736340000  1  1  1
0.2700500000  0.6184620000  0.0876970000  1  1  1
0.3300900000  0.6499820000  0.0943310000  1  1  1
0.3344350000  0.6514760000  0.1073740000  1  1  1
0.2752260000  0.6221150000  0.1140540000  1  1  1
0.2771220000  0.6234010000  0.1276300000  1  1  1
0.3486330000  0.6557280000  0.1344920000  1  1  1
0.3484270000  0.6556730000  0.1481450000  1  1  1
0.2790140000  0.6246580000  0.1551050000  1  1  1
0.2875710000  0.6300190000  0.1694470000  1  1  1
0.3504440000  0.6562030000  0.1743030000  1  1  1
0.3490150000  0.6558300000  0.1869090000  1  1  1
0.2849010000  0.6284010000  0.1911810000  1  1  1
0.2730670000  0.6206170000  0.2055310000  1  1  1
0.3384590000  0.6527770000  0.2131540000  1  1  1
0.3374840000  0.6524690000  0.2263860000  1  1  1
0.2732040000  0.6207130000  0.2331750000  1  1  1
0.2750640000  0.6220040000  0.2468850000  1  1  1
0.3406410000  0.6534510000  0.2534280000  1  1  1
0.3411520000  0.6536050000  0.2668600000  1  1  1
0.2755610000  0.6223440000  0.2737210000  1  1  1
0.2761100000  0.6227180000  0.2872750000  1  1  1
0.3433170000  0.6542460000  0.2936950000  1  1  1
0.3484740000  0.6556860000  0.3072510000  1  1  1
0.2828120000  0.6271010000  0.3144970000  1  1  1
0.2821320000  0.6266710000  0.3280770000  1  1  1
0.3489480000  0.6558120000  0.3367470000  1  1  1
0.3406990000  0.6534680000  0.3486380000  1  1  1
0.2843340000  0.6280510000  0.3542350000  1  1  1
0.2821780000  0.6267000000  0.3667140000  1  1  1
0.3420220000  0.6538660000  0.3736970000  1  1  1
0.3397070000  0.6531650000  0.3863350000  1  1  1
0.2738700000  0.6211790000  0.3925190000  1  1  1
0.2730980000  0.6206390000  0.4055580000  1  1  1
0.3415900000  0.6537370000  0.4126920000  1  1  1
0.3410430000  0.6535730000  0.4256850000  1  1  1
0.2795310000  0.6249960000  0.4312150000  1  1  1
0.2715250000  0.6195250000  0.4430630000  1  1  1
0.3357300000  0.6519030000  0.4516900000  1  1  1
0.3373420000  0.6524240000  0.4641070000  1  1  1
0.2838880000  0.6277750000  0.4719440000  1  1  1
0.2863680000  0.6292960000  0.4947700000  1  1  1
0.3175830000  0.6451530000  0.4847860000  1  1  1
0.3150430000  0.6440720000  0.5069830000  1  1  1
0.2637860000  0.6137480000  0.5146150000  1  1  1
0.2687300000  0.6174960000  0.5254770000  1  1  1
0.3247310000  0.6480110000  0.5310350000  1  1  1
0.3141940000  0.6437040000  0.5422940000  1  1  1
0.3553840000  0.6574240000  0.5497930000  1  1  1
0.3204460000  0.6463290000  0.5618150000  1  1  1
0.3632060000  0.6591360000  0.5716790000  1  1  1
0.3439710000  0.6544360000  0.5852280000  1  1  1
0.2738230000  0.6211460000  0.5908530000  1  1  1
0.2712850000  0.6193540000  0.6053620000  1  1  1
0.3391150000  0.6529820000  0.6128800000  1  1  1
0.3388840000  0.6529100000  0.6264520000  1  1  1
0.2745140000  0.6216250000  0.6330350000  1  1  1
0.2748240000  0.6218390000  0.6465570000  1  1  1
0.3419730000  0.6538510000  0.6535680000  1  1  1
0.3407780000  0.6534920000  0.6670440000  1  1  1
0.2738900000  0.6211920000  0.6734950000  1  1  1
0.2691660000  0.6178170000  0.6872600000  1  1  1
0.3308150000  0.6502380000  0.6945600000  1  1  1
0.3321060000  0.6506870000  0.7081830000  1  1  1
0.2697510000  0.6182450000  0.7168320000  1  1  1
0.2781050000  0.6240570000  0.7288410000  1  1  1
0.3403590000  0.6533650000  0.7345250000  1  1  1
0.3415840000  0.6537350000  0.7475140000  1  1  1
0.2759740000  0.6226260000  0.7541080000  1  1  1
0.2752760000  0.6221500000  0.7666060000  1  1  1
0.3396550000  0.6531490000  0.7736240000  1  1  1
0.3352750000  0.6517540000  0.7868870000  1  1  1
0.2712880000  0.6193550000  0.7926760000  1  1  1
0.2670550000  0.6162500000  0.8050860000  1  1  1
0.3185420000  0.6455520000  0.8128580000  1  1  1
0.2861690000  0.6291750000  0.8255540000  1  1  1
0.3124260000  0.6429230000  0.8364910000  1  1  1
0.2573430000  0.6085350000  0.8492040000  1  1  1
0.3566700000  0.6577240000  0.8606100000  1  1  1
0.3676430000  0.6599890000  0.8725190000  1  1  1
0.3091060000  0.6414100000  0.8780580000  1  1  1
0.2998110000  0.6368400000  0.8891050000  1  1  1
0.3532490000  0.6569100000  0.8971490000  1  1  1
0.3336640000  0.6512170000  0.9101630000  1  1  1
0.2709930000  0.6191430000  0.9135010000  1  1  1
0.2670350000  0.6162350000  0.9266880000  1  1  1
0.3263710000  0.6486290000  0.9315610000  1  1  1
0.3367030000  0.6522190000  0.9453870000  1  1  1
0.2736200000  0.6210040000  0.9525910000  1  1  1
0.2739980000  0.6212680000  0.9657670000  1  1  1
0.3347420000  0.6515780000  0.9723280000  1  1  1
0.3309370000  0.6502810000  0.9850770000  1  1  1
0.2693220000  0.6179310000  0.9916760000  1  1  1
0.1904690000  0.5116320000  0.0067280000  1  1  1
0.2271280000  0.5778150000  0.0129390000  1  1  1
0.2293420000  0.5805050000  0.0263000000  1  1  1
0.1920800000  0.5161920000  0.0336830000  1  1  1
0.1926840000  0.5178230000  0.0470480000  1  1  1
0.2265770000  0.5771320000  0.0536610000  1  1  1
0.2252920000  0.5755170000  0.0668070000  1  1  1
0.1912470000  0.5138750000  0.0734700000  1  1  1
0.1907420000  0.5124290000  0.0868930000  1  1  1
0.2226800000  0.5721350000  0.0937280000  1  1  1
0.2223920000  0.5717550000  0.1072180000  1  1  1
0.1909460000  0.5130180000  0.1135710000  1  1  1
0.1908370000  0.5127030000  0.1271090000  1  1  1
0.2259530000  0.5763520000  0.1342880000  1  1  1
0.2254520000  0.5757200000  0.1483610000  1  1  1
0.1909650000  0.5130710000  0.1546600000  1  1  1
0.1871460000  0.5009460000  0.1689780000  1  1  1
0.2057680000  0.5461560000  0.1799870000  1  1  1
0.2457700000  0.5981270000  0.1801130000  1  1  1
0.1859820000  0.4966450000  0.1910100000  1  1  1
0.1876350000  0.5026530000  0.2056730000  1  1  1
0.2175450000  0.5650660000  0.2123910000  1  1  1
0.2188930000  0.5669800000  0.2267480000  1  1  1
0.1884830000  0.5054910000  0.2359880000  1  1  1
0.1923060000  0.5168080000  0.2481860000  1  1  1
0.2249660000  0.5751020000  0.2538060000  1  1  1
0.2253980000  0.5756510000  0.2671950000  1  1  1
0.1913890000  0.5142780000  0.2737560000  1  1  1
0.1906330000  0.5121120000  0.2869530000  1  1  1
0.2246780000  0.5747340000  0.2940090000  1  1  1
0.2248710000  0.5749800000  0.3072880000  1  1  1
0.1906710000  0.5122240000  0.3138470000  1  1  1
0.1907190000  0.5123620000  0.3276670000  1  1  1
0.2270480000  0.5777160000  0.3348200000  1  1  1
0.2329360000  0.5846970000  0.3491210000  1  1  1
0.1817770000  0.4763100000  0.3571900000  1  1  1
0.2025720000  0.5401610000  0.3590570000  1  1  1
0.2287910000  0.5798440000  0.3708800000  1  1  1
0.2206650000  0.5694320000  0.3847380000  1  1  1
0.1881490000  0.5043900000  0.3917420000  1  1  1
0.1898990000  0.5099330000  0.4057500000  1  1  1
0.2244420000  0.5744310000  0.4119750000  1  1  1
0.2273850000  0.5781320000  0.4246080000  1  1  1
0.1977440000  0.5301140000  0.4321190000  1  1  1
0.1984560000  0.5316820000  0.4549480000  1  1  1
0.2140550000  0.5598980000  0.4450220000  1  1  1
0.2173070000  0.5647230000  0.4681190000  1  1  1
0.1910270000  0.5132510000  0.4760530000  1  1  1
0.1913150000  0.5140700000  0.4885920000  1  1  1
0.2234490000  0.5731460000  0.4969150000  1  1  1
0.2183690000  0.5662410000  0.5088910000  1  1  1
0.1895150000  0.5087630000  0.5149300000  1  1  1
0.1907650000  0.5124960000  0.5292320000  1  1  1
0.2260240000  0.5764410000  0.5338160000  1  1  1
0.2542980000  0.6059330000  0.5454360000  1  1  1
0.1836970000  0.4868680000  0.5628740000  1  1  1
0.2124030000  0.5573350000  0.5671740000  1  1  1
0.2509940000  0.6030030000  0.5592180000  1  1  1
0.2180990000  0.5658570000  0.5831960000  1  1  1
0.1870470000  0.5005930000  0.5904840000  1  1  1
0.1870500000  0.5006050000  0.6047330000  1  1  1
0.2202150000  0.5688160000  0.6119080000  1  1  1
0.2209460000  0.5698130000  0.6259680000  1  1  1
0.1893240000  0.5081720000  0.6325790000  1  1  1
0.1894610000  0.5085960000  0.6458860000  1  1  1
0.2234650000  0.5731670000  0.6530090000  1  1  1
0.2227430000  0.5722190000  0.6661960000  1  1  1
0.1901330000  0.5106370000  0.6723800000  1  1  1
0.1892640000  0.5079850000  0.6843000000  1  1  1
0.2141420000  0.5600300000  0.6921990000  1  1  1
0.1979360000  0.5305400000  0.7047450000  1  1  1
0.2133630000  0.5588330000  0.7147380000  1  1  1
0.1969140000  0.5282390000  0.7272640000  1  1  1
0.2267720000  0.5773750000  0.7351560000  1  1  1
0.2241920000  0.5741090000  0.7470900000  1  1  1
0.1900460000  0.5103780000  0.7533190000  1  1  1
0.1898620000  0.5098230000  0.7663750000  1  1  1
0.2231310000  0.5727300000  0.7731160000  1  1  1
0.2227220000  0.5721910000  0.7859630000  1  1  1
0.1903440000  0.5112630000  0.7927660000  1  1  1
0.1908170000  0.5126470000  0.8063500000  1  1  1
0.2194020000  0.5676910000  0.8114910000  1  1  1
0.2259260000  0.5763180000  0.8236420000  1  1  1
0.1924260000  0.5171330000  0.8340440000  1  1  1
0.2010700000  0.5371760000  0.8477200000  1  1  1
0.2820680000  0.6266300000  0.8589880000  1  1  1
0.2606210000  0.6112350000  0.8716360000  1  1  1
0.1876780000  0.5028020000  0.8773920000  1  1  1
0.2164690000  0.5635060000  0.8796040000  1  1  1
0.2417630000  0.5941680000  0.8919370000  1  1  1
0.2273330000  0.5780680000  0.9054390000  1  1  1
0.1947560000  0.5231210000  0.9108220000  1  1  1
0.1937050000  0.5204860000  0.9254810000  1  1  1
0.2240960000  0.5739850000  0.9323850000  1  1  1
0.2231290000  0.5727270000  0.9461460000  1  1  1
0.1908440000  0.5127260000  0.9522900000  1  1  1
0.1903660000  0.5113300000  0.9662290000  1  1  1
0.2220810000  0.5713410000  0.9727120000  1  1  1
0.2222220000  0.5715280000  0.9861070000  1  1  1
0.1898750000  0.5098620000  0.9931850000  1  1  1
0.1928240000  0.3706950000  0.0070300000  1  1  1
0.1793810000  0.4392110000  0.0141730000  1  1  1
0.1793240000  0.4425180000  0.0274660000  1  1  1
0.1905320000  0.3770730000  0.0363470000  1  1  1
0.1875580000  0.3865010000  0.0485090000  1  1  1
0.1793760000  0.4494580000  0.0541100000  1  1  1
0.1793790000  0.4495910000  0.0669790000  1  1  1
0.1900210000  0.3785880000  0.0737810000  1  1  1
0.1904110000  0.3774260000  0.0867620000  1  1  1
0.1793150000  0.4443460000  0.0933910000  1  1  1
0.1793160000  0.4441210000  0.1066790000  1  1  1
0.1904590000  0.3772850000  0.1132710000  1  1  1
0.1901730000  0.3781320000  0.1267290000  1  1  1
0.1793260000  0.4465240000  0.1335210000  1  1  1
0.1793190000  0.4457500000  0.1471210000  1  1  1
0.1900380000  0.3785360000  0.1535220000  1  1  1
0.1902460000  0.3779140000  0.1667350000  1  1  1
0.1794590000  0.4367370000  0.1731900000  1  1  1
0.1795450000  0.4346890000  0.1861970000  1  1  1
0.1914680000  0.3743900000  0.1920830000  1  1  1
0.1935580000  0.3687810000  0.2042960000  1  1  1
0.1804600000  0.4226870000  0.2117360000  1  1  1
0.1868570000  0.3889780000  0.2250430000  1  1  1
0.1805910000  0.4214780000  0.2345400000  1  1  1
0.1857180000  0.3932750000  0.2477220000  1  1  1
0.1795290000  0.4538510000  0.2547750000  1  1  1
0.1794190000  0.4510000000  0.2671010000  1  1  1
0.1876140000  0.3863090000  0.2726900000  1  1  1
0.1909850000  0.3757580000  0.2843820000  1  1  1
0.1793570000  0.4403120000  0.2931170000  1  1  1
0.1794340000  0.4374170000  0.3063650000  1  1  1
0.1929750000  0.3702970000  0.3132700000  1  1  1
0.1915770000  0.3740850000  0.3265970000  1  1  1
0.1793160000  0.4448750000  0.3337010000  1  1  1
0.1795100000  0.4354540000  0.3463060000  1  1  1
0.1900010000  0.3786470000  0.3519140000  1  1  1
0.1868580000  0.3889730000  0.3738800000  1  1  1
0.1817120000  0.4130010000  0.3631780000  1  1  1
0.1802000000  0.4253130000  0.3866440000  1  1  1
0.1931350000  0.3698760000  0.3946010000  1  1  1
0.1914510000  0.3744380000  0.4071900000  1  1  1
0.1793160000  0.4448290000  0.4132050000  1  1  1
0.1794480000  0.4518470000  0.4269450000  1  1  1
0.1878330000  0.3855610000  0.4341640000  1  1  1
0.1883500000  0.3838350000  0.4477150000  1  1  1
0.1794790000  0.4526710000  0.4568610000  1  1  1
0.1793230000  0.4426160000  0.4690760000  1  1  1
0.1906450000  0.3767410000  0.4746360000  1  1  1
0.1915280000  0.3742200000  0.4876320000  1  1  1
0.1793230000  0.4427090000  0.4948540000  1  1  1
0.1793370000  0.4414250000  0.5081060000  1  1  1
0.1903270000  0.3776740000  0.5142840000  1  1  1
0.1896710000  0.3796460000  0.5276180000  1  1  1
0.1794460000  0.4518020000  0.5353020000  1  1  1
0.1793560000  0.4403600000  0.5494150000  1  1  1
0.1914070000  0.3745610000  0.5531470000  1  1  1
0.1919320000  0.3731000000  0.5650080000  1  1  1
0.1795120000  0.4354210000  0.5704570000  1  1  1
0.1796700000  0.4323280000  0.5823490000  1  1  1
0.1990790000  0.3558610000  0.5846700000  1  1  1
0.1982220000  0.3577200000  0.6066040000  1  1  1
0.1796170000  0.4332580000  0.6119720000  1  1  1
0.1794520000  0.4369250000  0.6256720000  1  1  1
0.1947620000  0.3657520000  0.6324910000  1  1  1
0.1947060000  0.3658880000  0.6456530000  1  1  1
0.1793760000  0.4394310000  0.6525820000  1  1  1
0.1793380000  0.4413790000  0.6657230000  1  1  1
0.1910160000  0.3756700000  0.6726480000  1  1  1
0.1893850000  0.3805280000  0.6849270000  1  1  1
0.1793250000  0.4464110000  0.6904050000  1  1  1
0.1796430000  0.4561050000  0.7025010000  1  1  1
0.1853990000  0.3945470000  0.7097780000  1  1  1
0.1884540000  0.3834930000  0.7220670000  1  1  1
0.1793280000  0.4467490000  0.7317030000  1  1  1
0.1794140000  0.4380520000  0.7456430000  1  1  1
0.1934420000  0.3690800000  0.7526350000  1  1  1
0.1915080000  0.3742770000  0.7669540000  1  1  1
0.1793160000  0.4440590000  0.7731370000  1  1  1
0.1793360000  0.4473580000  0.7867470000  1  1  1
0.1875680000  0.3864670000  0.7935620000  1  1  1
0.1877140000  0.3859640000  0.8072060000  1  1  1
0.1793150000  0.4444850000  0.8136380000  1  1  1
0.1793200000  0.4430310000  0.8285090000  1  1  1
0.1972370000  0.3599150000  0.8357410000  1  1  1
0.2061780000  0.3419960000  0.8517250000  1  1  1
0.1865720000  0.3900200000  0.8621200000  1  1  1
0.1813120000  0.4731560000  0.8622640000  1  1  1
0.2019800000  0.3498920000  0.8758000000  1  1  1
0.1910860000  0.3754700000  0.8876780000  1  1  1
0.1793900000  0.4388690000  0.8904110000  1  1  1
0.1799870000  0.4611170000  0.9062910000  1  1  1
0.2047260000  0.3446390000  0.9194500000  1  1  1
0.1824970000  0.4082450000  0.9189190000  1  1  1