%BLOCK LATTICE_CART
10.436465940000    0.000000000000    0.000000000000    
0.000000000000    10.436465940000    0.000000000000    
0.000000000000    0.000000000000    10.436465940000    
%END BLOCK LATTICE_CART
%BLOCK POSITIONS_FRAC
Mg    0.000000000000    0.000000000000    0.000000000000
Mg    0.672986740000    0.327013260000    0.327013260000
Mg    0.327013260000    0.672986740000    0.327013260000
Mg    0.327013260000    0.327013260000    0.672986740000
Mg    0.172986740000    0.172986740000    0.172986740000
Mg    0.143154700000    0.856845300000    0.540747980000
Mg    0.959252020000    0.356845300000    0.356845300000
Mg    0.143154700000    0.540747980000    0.856845300000
Mg    0.856845300000    0.143154700000    0.540747980000
Mg    0.540747980000    0.143154700000    0.856845300000
Mg    0.356845300000    0.959252020000    0.356845300000
Mg    0.356845300000    0.356845300000    0.959252020000
Mg    0.540747980000    0.856845300000    0.143154700000
Mg    0.856845300000    0.540747980000    0.143154700000
Mg    0.143154700000    0.143154700000    0.459252020000
Mg    0.459252020000    0.143154700000    0.143154700000
Mg    0.143154700000    0.459252020000    0.143154700000
Mg    0.500000000000    0.500000000000    0.500000000000
Mg    0.172986740000    0.827013260000    0.827013260000
Mg    0.827013260000    0.172986740000    0.827013260000
Mg    0.827013260000    0.827013260000    0.172986740000
Mg    0.672986740000    0.672986740000    0.672986740000
Mg    0.643154700000    0.356845300000    0.040747980000
Mg    0.459252020000    0.856845300000    0.856845300000
Mg    0.643154700000    0.040747980000    0.356845300000
Mg    0.356845300000    0.643154700000    0.040747980000
Mg    0.040747980000    0.643154700000    0.356845300000
Mg    0.856845300000    0.459252020000    0.856845300000
Mg    0.856845300000    0.856845300000    0.459252020000
Mg    0.040747980000    0.356845300000    0.643154700000
Mg    0.356845300000    0.040747980000    0.643154700000
Mg    0.643154700000    0.643154700000    0.959252020000
Mg    0.959252020000    0.643154700000    0.643154700000
Mg    0.643154700000    0.959252020000    0.643154700000
Al    0.909485445000    0.090514555000    0.276232095000
Al    0.723767905000    0.090514555000    0.090514555000
Al    0.909485445000    0.276232095000    0.090514555000
Al    0.090514555000    0.909485445000    0.276232095000
Al    0.276232095000    0.909485445000    0.090514555000
Al    0.090514555000    0.723767905000    0.090514555000
Al    0.090514555000    0.090514555000    0.723767905000
Al    0.276232095000    0.090514555000    0.909485445000
Al    0.090514555000    0.276232095000    0.909485445000
Al    0.409485445000    0.409485445000    0.223767905000
Al    0.223767905000    0.409485445000    0.409485445000
Al    0.409485445000    0.223767905000    0.409485445000
Al    0.409485445000    0.590514555000    0.776232095000
Al    0.223767905000    0.590514555000    0.590514555000
Al    0.409485445000    0.776232095000    0.590514555000
Al    0.590514555000    0.409485445000    0.776232095000
Al    0.776232095000    0.409485445000    0.590514555000
Al    0.590514555000    0.223767905000    0.590514555000
Al    0.590514555000    0.590514555000    0.223767905000
Al    0.776232095000    0.590514555000    0.409485445000
Al    0.590514555000    0.776232095000    0.409485445000
Al    0.909485445000    0.909485445000    0.723767905000
Al    0.723767905000    0.909485445000    0.909485445000
Al    0.909485445000    0.723767905000    0.909485445000
%END BLOCK POSITIONS_FRAC
%BLOCK SPECIES_POT
Mg mg.gga.recpot
Al al.gga.recpot
%END BLOCK SPECIES_POT
