ATOMIC_SPECIES
In 114.818 in.gga.psp blps
Sb 121.76 sb.gga.psp blps

LATTICE_CONSTANT
1.9275205083505018  // add lattice constant

LATTICE_VECTORS
4.625094950000    0.000000000000    0.000000000000    
0.000000000000    8.005245790000    0.000000000000    
0.000000000000    0.000000000000    7.616297900000    

ATOMIC_POSITIONS
Direct

In
0.0
4
    0.000000000000    0.668118460000    0.488148930000 1 1 1
    0.000000000000    0.331881540000    0.988148930000 1 1 1
    0.500000000000    0.168118460000    0.488148930000 1 1 1
    0.500000000000    0.831881540000    0.988148930000 1 1 1
Sb
0.0
4
    0.000000000000    0.665501665000    0.861851070000 1 1 1
    0.000000000000    0.334498335000    0.361851070000 1 1 1
    0.500000000000    0.165501665000    0.861851070000 1 1 1
    0.500000000000    0.834498335000    0.361851070000 1 1 1
