%BLOCK LATTICE_CART
  -1.681019257046947   1.680071939280466   1.680084051687953
   1.680074378281901  -1.681010794281332   1.680075577942995
   1.680078221091815   1.680067308336248  -1.681014560899570
%END BLOCK LATTICE_CART
%BLOCK POSITIONS_FRAC
    Li   0.000000000000000   0.000000000000000   0.000000000000000
%END BLOCK POSITIONS_FRAC
%BLOCK SPECIES_POT
    Li li.lda.recpot                                                                          
%END BLOCK SPECIES_POT
