ATOMIC_SPECIES
Al 26.981539 al.lda.lps

LATTICE_CONSTANT
7.50241114482312  // add lattice constant

LATTICE_VECTORS
0.707106781187    0.000000000000    0.000000000000    
0.353553390593    0.612372435696    0.000000000000    
0.000000000000    0.000000000000    12.701705922171765

ATOMIC_POSITIONS
Direct

Al
0.0
22
    -1.2952000151E-30 -1.3619022488E-30  1.3798773145E-04 1 1 1
     3.3333333330E-01  3.3333333330E-01  4.5331260081E-02 1 1 1
     6.6666666670E-01  6.6666666670E-01  9.0852453035E-02 1 1 1
    -1.2819049167E-30 -1.3486071504E-30  1.3608027320E-01 1 1 1
     3.3333333330E-01  3.3333333330E-01  1.8167620322E-01 1 1 1
    -1.2815238519E-30 -1.3482260856E-30  2.2710007133E-01 1 1 1
     6.0000000000E-01  6.0000000000E-01  2.7301158808E-01 1 1 1
     9.3333333330E-01  9.3333333330E-01  3.1849071484E-01 1 1 1
     2.6666666670E-01  2.6666666670E-01  3.6377475817E-01 1 1 1
     6.0000000000E-01  6.0000000000E-01  4.0899777365E-01 1 1 1
     9.3333333330E-01  9.3333333330E-01  4.5454545455E-01 1 1 1
     6.0000000000E-01  6.0000000000E-01  5.0009313545E-01 1 1 1
     2.6666666670E-01  2.6666666670E-01  5.4531615093E-01 1 1 1
     9.3333333330E-01  9.3333333330E-01  5.9060019426E-01 1 1 1
     6.0000000000E-01  6.0000000000E-01  6.3607932102E-01 1 1 1
    -1.2815238519E-30 -1.3482260856E-30  6.8199083777E-01 1 1 1
     3.3333333330E-01  3.3333333330E-01  7.2741470588E-01 1 1 1
    -1.2819049167E-30 -1.3486071504E-30  7.7301063590E-01 1 1 1
     6.6666666670E-01  6.6666666670E-01  8.1823845606E-01 1 1 1
     3.3333333330E-01  3.3333333330E-01  8.6375964902E-01 1 1 1
    -1.2952000151E-30 -1.3619022488E-30  9.0895292137E-01 1 1 1
     6.6666666670E-01  6.6666666670E-01  9.5454545455E-01 1 1 1
