ATOMIC_SPECIES
Al 26.981539 al.lda.lps

LATTICE_CONSTANT
7.50241114482312  // add lattice constant

LATTICE_VECTORS
0.707106781187    0.000000000000    0.000000000000    
0.353553390593    0.612372435696    0.000000000000    
0.000000000000    0.000000000000    11.547005383792515

ATOMIC_POSITIONS
Direct

Al
0.0
20
    1.1054437582E-30  1.1054437582E-30  1.6060154519E-04 1 1 1
    3.3333333330E-01  3.3333333330E-01  4.9931979641E-02 1 1 1
    6.6666666670E-01  6.6666666670E-01  9.9970951052E-02 1 1 1
    1.0310645680E-30  1.0341394694E-30  1.4974351087E-01 1 1 1
    3.3333333330E-01  3.3333333330E-01  1.9971795508E-01 1 1 1
    9.3333333330E-01  9.3333333330E-01  2.5040482927E-01 1 1 1
    2.6666666670E-01  2.6666666670E-01  3.0027775716E-01 1 1 1
    6.0000000000E-01  6.0000000000E-01  3.5010514940E-01 1 1 1
    9.3333333330E-01  9.3333333330E-01  3.9989603968E-01 1 1 1
    2.6666666670E-01  2.6666666670E-01  4.5000000000E-01 1 1 1
    9.3333333330E-01  9.3333333330E-01  5.0010396032E-01 1 1 1
    6.0000000000E-01  6.0000000000E-01  5.4989485060E-01 1 1 1
    2.6666666670E-01  2.6666666670E-01  5.9972224284E-01 1 1 1
    9.3333333330E-01  9.3333333330E-01  6.4959517073E-01 1 1 1
    3.3333333330E-01  3.3333333330E-01  7.0028204492E-01 1 1 1
    1.0344006905E-30  1.0467002962E-30  7.5025648913E-01 1 1 1
    6.6666666670E-01  6.6666666670E-01  8.0002904895E-01 1 1 1
    3.3333333330E-01  3.3333333330E-01  8.5006802036E-01 1 1 1
    1.0963691166E-30  1.0963691166E-30  8.9983939845E-01 1 1 1
    6.6666666670E-01  6.6666666670E-01  9.5000000000E-01 1 1 1
