%BLOCK LATTICE_CART
  -0.001247596520181   2.225712779373525   2.225712777938476
   2.225712791926850  -0.001247586039267   2.225712779973582
   2.225712791722606   2.225712781204386  -0.001247584609783
%END BLOCK LATTICE_CART
%BLOCK POSITIONS_FRAC
    Mg   0.000000000000000   0.000000000000000   0.000000000000000
%END BLOCK POSITIONS_FRAC
%BLOCK SPECIES_POT
    Mg mg.lda.recpot                                                                          
%END BLOCK SPECIES_POT
