ATOMIC_SPECIES
Al 26.981539 Al_ONCV_PBE-1.2.upf

LATTICE_CONSTANT
7.49843272255

LATTICE_VECTORS
0.707106781187 0 0 #latvec1
0.353553390593 0.612372435696 0 #latvec2
0 0 12.7017059222 #latvec3

ATOMIC_POSITIONS
Direct

Al #label
0 #magnetism
22 #number of atoms
0.999999999984  0.999999999984  0.998609506329  m  0  0  1
0.333333333319  0.333333333319  0.0518442757575  m  0  0  1
0.66666666665  0.66666666665  0.0960325213629  m  0  0  1
0.999999999984  0.999999999984  0.136560000256  m  0  0  1
0.333333333319  0.333333333319  0.179177910696  m  0  0  1
0.999999999984  0.999999999984  0.218073930503  m  0  0  1
0.333333333319  0.333333333319  0.260925035731  m  0  0  1
0.66666666665  0.66666666665  0.304159492633  m  0  0  1
0.999999999984  0.999999999984  0.354226525932  m  0  0  1
0.333333333319  0.333333333319  0.405991349599  m  0  0  1
0.66666666665  0.66666666665  0.467502120158  m  0  0  1
0.333333333319  0.333333333319  0.511256955699  m  0  0  1
0.999999999984  0.999999999984  0.553814552812  m  0  0  1
0.66666666665  0.66666666665  0.599617573975  m  0  0  1
0.333333333319  0.333333333319  0.642272550822  m  0  0  1
0.999999999984  0.999999999984  0.687291836895  m  0  0  1
0.333333333319  0.333333333319  0.73337839961  m  0  0  1
0.999999999984  0.999999999984  0.774084791587  m  0  0  1
0.66666666665  0.66666666665  0.816842182031  m  0  0  1
0.333333333319  0.333333333319  0.859422211646  m  0  0  1
0.999999999984  0.999999999984  0.901588095177  m  0  0  1
0.66666666665  0.66666666665  0.947328180878  m  0  0  1
