ATOMIC_SPECIES
Al 13 al.lda.lps

LATTICE_CONSTANT
7.50241114482312  // add lattice constant

LATTICE_VECTORS
2.000000000000    0.000000000000    0.000000000000    
0.000000000000    1.000000000000    0.000000000000    
0.000000000000    0.000000000000    1.000000000000    

ATOMIC_POSITIONS
Direct

Al
0.0
7
0.250000000000 0.500000000000 0.000000000000 1 1 1
0.250000000000 0.000000000000 0.500000000000 1 1 1
0.000000000000 0.500000000000 0.500000000000 1 1 1
0.500000000000 0.000000000000 0.000000000000 1 1 1
0.750000000000 0.500000000000 0.000000000000 1 1 1
0.750000000000 0.000000000000 0.500000000000 1 1 1
0.500000000000 0.500000000000 0.500000000000 1 1 1

