ATOMIC_SPECIES
Ga  Ga_mass  Ga_pesudopotential
P  P_mass  P_pesudopotential
H  H_mass  H_pesudopotential
O  O_mass  O_pesudopotential
C  C_mass  C_pesudopotential

NUMERICAL_ORBITAL
Ga_orbital
P_orbital
H_orbital
O_orbital
C_orbital

LATTICE_CONSTANT
1.889727000000

LATTICE_VECTORS
15.605759999987  0.000000000000  0.000000000000
0.000000000000  16.552409999993  0.000000000000
0.000000000000  0.000000000000  30.388121999996

ATOMIC_POSITIONS
Direct

Ga
0
60
0.001923752328  0.022344713582  0.015703237409  1  1  1
0.997231846334  0.689994825020  0.015498508901  1  1  1
0.003278707627  0.353480635470  0.015622317925  1  1  1
0.501381788393  0.022231482281  0.015676654943  1  1  1
0.496434710998  0.672575988977  0.008444982717  1  1  1
0.489265729534  0.328156801526  0.998066111022  1  1  1
0.250716136954  0.021957816837  0.015718846687  1  1  1
0.244265738405  0.689267012196  0.015799146573  1  1  1
0.250148645072  0.359049557521  0.015197684203  1  1  1
0.750373875260  0.021853855284  0.015801336012  1  1  1
0.748720727270  0.683823192475  0.012959088680  1  1  1
0.762980043696  0.352407189411  0.016155410797  1  1  1
0.377207395407  0.165364139704  0.064352632056  1  1  1
0.375448272236  0.829769604379  0.064388080036  1  1  1
0.375935748361  0.495796015853  0.064226637172  1  1  1
0.876564275258  0.164210189719  0.064257516459  1  1  1
0.874492221959  0.829688869946  0.064076743419  1  1  1
0.875880957940  0.497726776171  0.064313858275  1  1  1
0.128173699359  0.165065914943  0.064239308206  1  1  1
0.123994401661  0.832578390089  0.064468228359  1  1  1
0.124283511901  0.497681512639  0.064327078243  1  1  1
0.622956194349  0.165001743608  0.064178282648  1  1  1
0.623989876485  0.829113896960  0.063877934422  1  1  1
0.624658492773  0.502700969108  0.067610390035  1  1  1
0.000000000000  0.000000000000  0.130439996734  0  0  0
0.000000000000  0.666670024140  0.130439996734  0  0  0
0.000000000000  0.333330005404  0.130439996734  0  0  0
0.500000000025  0.000000000000  0.130439996734  0  0  0
0.500000000025  0.666670024140  0.130439996734  0  0  0
0.500000000025  0.333330005404  0.130439996734  0  0  0
0.249999999980  0.000000000000  0.130439996734  0  0  0
0.249999999980  0.666670024140  0.130439996734  0  0  0
0.249999999980  0.333330005404  0.130439996734  0  0  0
0.750000000267  0.000000000000  0.130439996734  0  0  0
0.750000000267  0.666670024140  0.130439996734  0  0  0
0.750000000267  0.333330005404  0.130439996734  0  0  0
0.377138442572  0.165388384418  0.196324285804  1  1  1
0.375622992206  0.829245170873  0.196569274978  1  1  1
0.376317659014  0.496129896020  0.196565675271  1  1  1
0.876543160884  0.164323399037  0.196438295637  1  1  1
0.874357807333  0.829753837395  0.196642313960  1  1  1
0.875836353201  0.497799438552  0.196382695968  1  1  1
0.128170891578  0.165083980846  0.196456203156  1  1  1
0.123968362297  0.832710368282  0.196213208664  1  1  1
0.124356312616  0.497774746342  0.196360814815  1  1  1
0.622979170221  0.164939928703  0.196546041455  1  1  1
0.623851328761  0.828502096660  0.198717071559  1  1  1
0.624208239749  0.502834544588  0.193313303253  1  1  1
0.001795944399  0.022444704111  0.244929262376  1  1  1
0.997290893472  0.690092962769  0.245132080555  1  1  1
0.003312839972  0.353596733050  0.245021055713  1  1  1
0.500499806343  0.022287734640  0.244951158874  1  1  1
0.496411355886  0.672894568169  0.254924427648  1  1  1
0.489313828162  0.328566151410  0.262381546932  1  1  1
0.250594913073  0.021976626348  0.244907008161  1  1  1
0.244666912949  0.689572284447  0.244999723777  1  1  1
0.250213956477  0.359033283757  0.245598768632  1  1  1
0.750316939945  0.021937450846  0.244855088297  1  1  1
0.748764551577  0.683987120741  0.248067633395  1  1  1
0.762977254435  0.352527060279  0.244646528831  1  1  1

P
0
60
0.376052690589  0.092218186924  0.995875764849  1  1  1
0.372311528800  0.754949040067  0.998152082246  1  1  1
0.374565807703  0.427166916521  0.994838615873  1  1  1
0.875911500456  0.091758147900  0.995827631567  1  1  1
0.872427688595  0.758140828279  0.994781297915  1  1  1
0.880341413022  0.426303928776  0.994582943979  1  1  1
0.126214722717  0.092543604452  0.995579128407  1  1  1
0.121419175655  0.760524027867  0.995502072885  1  1  1
0.124514905476  0.426586502275  0.995356475487  1  1  1
0.625958616306  0.092511120641  0.995550661989  1  1  1
0.621531253726  0.753532577587  0.996223175927  1  1  1
0.626496432446  0.412646228800  0.004791499873  1  1  1
0.001592323417  0.247509255502  0.066756386040  1  1  1
0.998892340333  0.914960435351  0.066378675387  1  1  1
0.999668424987  0.582042183734  0.066257513464  1  1  1
0.500960456041  0.251320326880  0.065531920179  1  1  1
0.500161558515  0.914180289486  0.066290718782  1  1  1
0.498551297798  0.581070372518  0.067694953831  1  1  1
0.251855821202  0.250004626867  0.065854531105  1  1  1
0.250337745336  0.914570532709  0.066575610089  1  1  1
0.249676257507  0.581119994791  0.066405590954  1  1  1
0.750741060306  0.247302969194  0.066954377043  1  1  1
0.749401684850  0.913736761787  0.066339172685  1  1  1
0.751187189549  0.582179081624  0.067116569454  1  1  1
0.125000000020  0.083329997984  0.130439996734  0  0  0
0.125000000020  0.749999999847  0.130439996734  0  0  0
0.125000000020  0.416669994571  0.130439996734  0  0  0
0.624999999984  0.083329997984  0.130439996734  0  0  0
0.624999999984  0.749999999847  0.130439996734  0  0  0
0.624999999984  0.416669994571  0.130439996734  0  0  0
0.375000000005  0.083329997984  0.130439996734  0  0  0
0.375000000005  0.749999999847  0.130439996734  0  0  0
0.375000000005  0.416669994571  0.130439996734  0  0  0
0.875000000096  0.083329997984  0.130439996734  0  0  0
0.875000000096  0.749999999847  0.130439996734  0  0  0
0.875000000096  0.416669994571  0.130439996734  0  0  0
0.001612184406  0.247483075138  0.194091752890  1  1  1
0.998793398983  0.914934909851  0.194426772498  1  1  1
0.999672325544  0.581989029708  0.194552390422  1  1  1
0.500992678139  0.251239060869  0.195387580553  1  1  1
0.500139223188  0.913840700327  0.194717528392  1  1  1
0.498634599006  0.582415003160  0.194507693118  1  1  1
0.251846610022  0.249988746399  0.194980010572  1  1  1
0.250495221689  0.914351484365  0.194277984660  1  1  1
0.249858040807  0.581207267121  0.194513365747  1  1  1
0.750658177397  0.247366507810  0.193961571424  1  1  1
0.749135475882  0.913463586083  0.194661104883  1  1  1
0.750939256358  0.582217983604  0.194033380552  1  1  1
0.375652128698  0.092459354321  0.264939373929  1  1  1
0.372169854506  0.755889165511  0.263812493234  1  1  1
0.374645628061  0.427141451352  0.266179712929  1  1  1
0.875822730123  0.091872852028  0.264912964056  1  1  1
0.872614319131  0.758241990106  0.266017878551  1  1  1
0.880409465349  0.426373626865  0.266202425839  1  1  1
0.126121367012  0.092497313732  0.265149297669  1  1  1
0.121473593385  0.760572388214  0.265184905774  1  1  1
0.124570552814  0.426656549529  0.265388685894  1  1  1
0.625542477006  0.092252710968  0.265124631924  1  1  1
0.622161602777  0.753436625441  0.266522703955  1  1  1
0.626648921686  0.412878297915  0.256677105404  1  1  1

H
0
18
0.565555022954  0.673810314903  0.384874350122  1  1  1
0.681029052943  0.712976846674  0.349526801206  1  1  1
0.485240720255  0.726286778349  0.372826157127  1  1  1
0.492560164398  0.625818395975  0.339811616570  1  1  1
0.527227491387  0.824157908118  0.332143916832  1  1  1
0.428841730096  0.815453209483  0.329335834710  1  1  1
0.700667491740  0.736242128156  0.398201212329  1  1  1
0.444227952944  0.556207802789  0.306133683947  1  1  1
0.645322740608  0.492880968492  0.364890246786  1  1  1
0.565758585114  0.675234691054  0.881525750315  1  1  1
0.677597318936  0.715360994610  0.917598496184  1  1  1
0.485817186738  0.728113708101  0.893869956043  1  1  1
0.492179142543  0.625537927326  0.924731458456  1  1  1
0.528591823021  0.823672900481  0.934291699570  1  1  1
0.429936927210  0.816080736823  0.936249208149  1  1  1
0.700887773844  0.736642846326  0.869057606298  1  1  1
0.443968813730  0.554880421906  0.958399534432  1  1  1
0.647298752647  0.496864101585  0.897694046427  1  1  1

O
0
12
0.675391710238  0.693690826586  0.380052502221  1  1  1
0.502589793893  0.668874439739  0.379492579433  1  1  1
0.476076681616  0.821292097067  0.351055722702  1  1  1
0.490824199453  0.596501994099  0.307715043848  1  1  1
0.675108997800  0.694411732943  0.887222566551  1  1  1
0.502622480141  0.670611274345  0.886615514201  1  1  1
0.477936888962  0.822322364244  0.914897831770  1  1  1
0.490998950589  0.594798090076  0.956630236609  1  1  1
0.694078885088  0.546631519866  0.300150174041  1  1  1
0.695110906774  0.547402930248  0.963274002716  1  1  1
0.628014960054  0.452914709977  0.342395549367  1  1  1
0.629313854860  0.455947266082  0.919517631576  1  1  1

C
0
2
0.654659797073  0.482903465998  0.303231529683  1  1  1
0.655311290213  0.484056174566  0.959152441875  1  1  1
