ATOMIC_SPECIES
Ga  Ga_mass  Ga_pesudopotential
P  P_mass  P_pesudopotential
H  H_mass  H_pesudopotential
O  O_mass  O_pesudopotential
C  C_mass  C_pesudopotential

NUMERICAL_ORBITAL
Ga_orbital
P_orbital
H_orbital
O_orbital
C_orbital

LATTICE_CONSTANT
1.889727000000

LATTICE_VECTORS
15.605759999987  0.000000000000  0.000000000000
0.000000000000  16.552409999993  0.000000000000
0.000000000000  0.000000000000  30.388121999996

ATOMIC_POSITIONS
Direct

Ga
0
60
0.001907349004  0.022436861197  0.015941615793  1  1  1
0.997443883232  0.689978222503  0.015853211791  1  1  1
0.997411363531  0.354512695698  0.015795896991  1  1  1
0.501942285979  0.027002669978  0.015865482936  1  1  1
0.496893983368  0.677810209934  0.015373638897  1  1  1
0.496858698916  0.353718414422  0.016130334287  1  1  1
0.250389798825  0.022468745113  0.015968610366  1  1  1
0.244170544186  0.689678971913  0.015921867577  1  1  1
0.244706814511  0.354371437659  0.015793568035  1  1  1
0.750833487505  0.022841241242  0.015995147092  1  1  1
0.750774815386  0.689360968769  0.018994419210  1  1  1
0.750251360290  0.358004967683  0.015907773548  1  1  1
0.375320463498  0.163247081038  0.064087225179  1  1  1
0.375906644297  0.832413140848  0.064438847143  1  1  1
0.371446851909  0.496442213635  0.064490942312  1  1  1
0.875370193584  0.163899572808  0.064044245841  1  1  1
0.875862839897  0.830053302049  0.064247759933  1  1  1
0.875916215746  0.496614420969  0.064207531870  1  1  1
0.124299393768  0.163831825381  0.064114930708  1  1  1
0.124162834070  0.829397546860  0.064200194444  1  1  1
0.123427443153  0.496594437299  0.064122710106  1  1  1
0.624922348737  0.164544275442  0.064154745817  1  1  1
0.624055954299  0.833574681176  0.064779231254  1  1  1
0.623600460526  0.496742253322  0.064766295667  1  1  1
0.000000000000  0.000000000000  0.130439996734  0  0  0
0.000000000000  0.666670024140  0.130439996734  0  0  0
0.000000000000  0.333330005400  0.130439996734  0  0  0
0.500000000025  0.000000000000  0.130439996734  0  0  0
0.500000000025  0.666670024140  0.130439996734  0  0  0
0.500000000025  0.333330005400  0.130439996734  0  0  0
0.249999999980  0.000000000000  0.130439996734  0  0  0
0.249999999980  0.666670024140  0.130439996734  0  0  0
0.249999999980  0.333330005400  0.130439996734  0  0  0
0.750000000266  0.000000000000  0.130439996734  0  0  0
0.750000000266  0.666670024140  0.130439996734  0  0  0
0.750000000266  0.333330005400  0.130439996734  0  0  0
0.375726392007  0.164104019191  0.196734442606  1  1  1
0.375763054971  0.829375457947  0.196596467018  1  1  1
0.375745974579  0.496921847669  0.196231883165  1  1  1
0.876152153077  0.164527928044  0.196730961669  1  1  1
0.875621306418  0.829870896585  0.196571651696  1  1  1
0.876066922561  0.497096648161  0.196480327147  1  1  1
0.124806087559  0.164725696184  0.196661817098  1  1  1
0.124208207569  0.829603229852  0.196538175711  1  1  1
0.124293610299  0.497162933683  0.196462748149  1  1  1
0.625992265738  0.164237298226  0.196664578689  1  1  1
0.624203421678  0.829958002024  0.196524639768  1  1  1
0.624564320882  0.496946655146  0.196179285376  1  1  1
0.001978815037  0.022534943276  0.244701028050  1  1  1
0.997535017726  0.690137212533  0.244835880747  1  1  1
0.002759266450  0.358386851924  0.244816722454  1  1  1
0.501886718965  0.022901268337  0.244658572613  1  1  1
0.497298514167  0.677848820678  0.248209292990  1  1  1
0.502601597510  0.353877586694  0.244704367967  1  1  1
0.250488151463  0.022316446336  0.244583482530  1  1  1
0.244203946486  0.689173150331  0.244756880393  1  1  1
0.250033536206  0.358425803484  0.244808620406  1  1  1
0.750785462960  0.022464037677  0.244581100524  1  1  1
0.750603865426  0.689262349237  0.244433557656  1  1  1
0.755312589413  0.358434273901  0.244823413554  1  1  1

P
0
60
0.375157637375  0.092410102494  0.995117868023  1  1  1
0.373928847065  0.753730075340  0.997597032143  1  1  1
0.372418154069  0.423548339367  0.995821817069  1  1  1
0.876246218392  0.091202000072  0.995421553287  1  1  1
0.872470482394  0.758496267103  0.995188000305  1  1  1
0.874362681323  0.426325152819  0.994774432007  1  1  1
0.125996639748  0.092028179687  0.995198576916  1  1  1
0.121796752880  0.759602051302  0.994585109721  1  1  1
0.121911988202  0.424882841394  0.995022089382  1  1  1
0.627178469073  0.093573846908  0.994961153250  1  1  1
0.622057250235  0.753339920577  0.998488099341  1  1  1
0.621627874423  0.424222680905  0.996306525250  1  1  1
0.999571534294  0.247851400807  0.066759415838  1  1  1
0.000395480286  0.914504171969  0.066579243669  1  1  1
0.999297470051  0.581921187992  0.066394212554  1  1  1
0.499487410034  0.247553390887  0.066953657750  1  1  1
0.500025276047  0.916902647143  0.065831525702  1  1  1
0.497911243444  0.578223482904  0.069041913772  1  1  1
0.249964654886  0.247644857997  0.066756899541  1  1  1
0.249630335043  0.914126984249  0.066386388121  1  1  1
0.247899744429  0.581591853344  0.066368871878  1  1  1
0.749752014546  0.249130621990  0.066244955820  1  1  1
0.750602112119  0.914487693555  0.066391044157  1  1  1
0.749458869287  0.579609972625  0.067360310499  1  1  1
0.125000000022  0.083329997984  0.130439996734  0  0  0
0.125000000022  0.749999999849  0.130439996734  0  0  0
0.125000000022  0.416669994571  0.130439996734  0  0  0
0.624999999984  0.083329997984  0.130439996734  0  0  0
0.624999999984  0.749999999849  0.130439996734  0  0  0
0.624999999984  0.416669994571  0.130439996734  0  0  0
0.375000000004  0.083329997984  0.130439996734  0  0  0
0.375000000004  0.749999999849  0.130439996734  0  0  0
0.375000000004  0.416669994571  0.130439996734  0  0  0
0.875000000095  0.083329997984  0.130439996734  0  0  0
0.875000000095  0.749999999849  0.130439996734  0  0  0
0.875000000095  0.416669994571  0.130439996734  0  0  0
0.000659138913  0.249382255405  0.194664472988  1  1  1
0.000197250467  0.914355944758  0.194286112159  1  1  1
0.999823056031  0.582088642055  0.194362061822  1  1  1
0.500934018512  0.247617547535  0.193996964312  1  1  1
0.500134493210  0.913948181188  0.194565389253  1  1  1
0.500123911911  0.580273319687  0.193024855264  1  1  1
0.250805566967  0.249141800131  0.194740663218  1  1  1
0.250181891534  0.913360367360  0.194465510071  1  1  1
0.249897154168  0.581144976025  0.194310124719  1  1  1
0.750764542208  0.249298410934  0.194735749354  1  1  1
0.749876088973  0.913473029561  0.194478464619  1  1  1
0.749868585825  0.581025733683  0.194320011067  1  1  1
0.376099366251  0.091006725088  0.265225707963  1  1  1
0.373311647854  0.753296821826  0.264579024702  1  1  1
0.378241510747  0.424660666318  0.265138491707  1  1  1
0.876160510918  0.091096632123  0.265204899721  1  1  1
0.873347764580  0.759181109220  0.266175769336  1  1  1
0.878172203325  0.427793470203  0.266200249442  1  1  1
0.126180090367  0.092020685086  0.265425871644  1  1  1
0.122024570397  0.759415199140  0.266144152283  1  1  1
0.126600536961  0.427870163123  0.266182575994  1  1  1
0.626275660858  0.091837055751  0.265533009202  1  1  1
0.622150657604  0.753914884219  0.265112383553  1  1  1
0.626347631116  0.424676149925  0.265058982864  1  1  1

H
0
18
0.590075470828  0.673031274575  0.377802387739  1  1  1
0.684514299383  0.725193480809  0.337992932769  1  1  1
0.501173431974  0.724588444251  0.365459720706  1  1  1
0.512191910525  0.623759786703  0.353461778625  1  1  1
0.532692538044  0.811918550070  0.328597353219  1  1  1
0.434141343713  0.796876763113  0.327541366514  1  1  1
0.724451583768  0.723497465087  0.385978593174  1  1  1
0.450596852532  0.535306286221  0.302312905984  1  1  1
0.550844478595  0.535283521184  0.300534336340  1  1  1
0.596370186880  0.671293672631  0.888591578861  1  1  1
0.688702166376  0.720683008759  0.929633658893  1  1  1
0.508391483521  0.726252905612  0.899888184253  1  1  1
0.514808263456  0.624512475485  0.911051058812  1  1  1
0.539752203188  0.809616425868  0.938482953187  1  1  1
0.440458013146  0.798036129553  0.936930818902  1  1  1
0.734264540477  0.715144138491  0.883150179234  1  1  1
0.447817867514  0.536672527705  0.960888122850  1  1  1
0.548033476779  0.534539938605  0.963458453875  1  1  1

O
0
12
0.684361442930  0.695662685022  0.366458357919  1  1  1
0.524337930289  0.665661907457  0.377227155154  1  1  1
0.483789537933  0.801455037042  0.348732694835  1  1  1
0.501128114272  0.571709834106  0.307440782541  1  1  1
0.691051564304  0.689337513439  0.901717888795  1  1  1
0.530355688407  0.666567596487  0.887907091010  1  1  1
0.492017984829  0.802409438118  0.916974599224  1  1  1
0.499209259553  0.572177629929  0.956532953326  1  1  1
0.658158271620  0.351892833124  0.390967255236  1  1  1
0.671944309785  0.351735883525  0.883814048624  1  1  1
0.616429875542  0.488507166566  0.394124750039  1  1  1
0.616660649400  0.483430835532  0.876420341813  1  1  1

C
0
2
0.637446493761  0.420150540945  0.392369680042  1  1  1
0.644421206249  0.417591157999  0.880432347078  1  1  1
