ATOMIC_SPECIES
Al  26.9810 al.gga.psp blps
P  30.9740 p.gga.psp blps

LATTICE_CONSTANT
1.8897259886

LATTICE_VECTORS
        1.9474499241       -3.3730822138       -0.0000000000
        1.9474499241        3.3730822138        0.0000000000
        0.0000000000       -0.0000000000        6.3958357697

ATOMIC_POSITIONS
Direct

Al #label
0.0000   #magnetism
2 #number of atoms
        0.3333333333        0.6666666667        0.0001165678 m 1 1 1
        0.6666666667        0.3333333333        0.5001165678 m 1 1 1

P #label
0.0000   #magnetism
2 #number of atoms
        0.3333333333        0.6666666667        0.3748834322 m 1 1 1
        0.6666666667        0.3333333333        0.8748834322 m 1 1 1
