%BLOCK LATTICE_CART
2.216947063965    -3.839864952479    0.000000000000    
2.216947063965    3.839864952479    0.000000000000    
0.000000000000    0.000000000000    14.119094935224    
%END BLOCK LATTICE_CART
%BLOCK POSITIONS_FRAC
Li    0.666666666667    0.333333333333    0.931123083333
Li    0.666666666667    0.333333333333    0.735543583333
Li    0.000000000000    0.000000000000    0.000000000000
Li    0.333333333333    0.666666666667    0.264456416667
Li    0.333333333333    0.666666666667    0.068876916667
Li    0.666666666667    0.333333333333    0.333333333333
Li    0.000000000000    0.000000000000    0.597789750000
Li    0.000000000000    0.000000000000    0.402210250000
Li    0.333333333333    0.666666666667    0.666666666667
Al    0.333333333333    0.666666666667    0.863018496667
Al    0.000000000000    0.000000000000    0.803648170000
Al    0.000000000000    0.000000000000    0.196351830000
Al    0.666666666667    0.333333333333    0.136981503333
Al    0.666666666667    0.333333333333    0.529685163333
Al    0.333333333333    0.666666666667    0.470314836667
%END BLOCK POSITIONS_FRAC
%BLOCK SPECIES_POT
Li li.gga.recpot
Al al.gga.recpot
%END BLOCK SPECIES_POT
