%BLOCK LATTICE_CART
   2.805799707700000   0.000000000000000   0.000000000000000
   1.402899853850000   2.429893824799152   0.000000000000000
   0.000000000000003   0.000000000000002  45.915007147738102
%END BLOCK LATTICE_CART
%BLOCK POSITIONS_FRAC
    Al   0.000000000000000   0.000000000000000   0.000116078552184
    Al   0.333333333300000   0.333333333300000   0.049979355921425
    Al   0.666666666700000   0.666666666700000   0.099775966810804
    Al   0.000000000000000   0.000000000000000   0.149609255471374
    Al   0.333333333300000   0.333333333300000   0.199740504297538
    Al   0.966666666700000   0.966666666700000   0.250254527437766
    Al   0.300000000000000   0.300000000000000   0.300359163024016
    Al   0.633333333300000   0.633333333300000   0.350142089279226
    Al   0.966666666700000   0.966666666700000   0.399930519153372
    Al   0.300000000000000   0.300000000000000   0.450000089925837
    Al   0.966666666700000   0.966666666700000   0.500069678756778
    Al   0.633333333300000   0.633333333300000   0.549858112396681
    Al   0.300000000000000   0.300000000000000   0.599640992774628
    Al   0.966666666700000   0.966666666700000   0.649745544078766
    Al   0.333333333300000   0.333333333300000   0.700259483565071
    Al   1.000000000000000   1.000000000000000   0.750390702359023
    Al   0.666666666700000   0.666666666700000   0.800223975098759
    Al   0.333333333300000   0.333333333300000   0.850020549638754
    Al   0.000000000000000   0.000000000000000   0.899883775377461
    Al   0.666666666700000   0.666666666700000   0.949999907643261
%END BLOCK POSITIONS_FRAC
%BLOCK SPECIES_POT
    Al al_HC.lda.recpot                                                                       
%END BLOCK SPECIES_POT
%BLOCK ION_OPTIMIZATION
           0           0           1
           0           0           1
           0           0           1
           0           0           1
           0           0           1
           0           0           1
           0           0           1
           0           0           1
           0           0           1
           0           0           1
           0           0           1
           0           0           1
           0           0           1
           0           0           1
           0           0           1
           0           0           1
           0           0           1
           0           0           1
           0           0           1
           0           0           1
%END BLOCK ION_OPTIMIZATION
