ATOMIC_SPECIES
Li 6.941 li.gga.psp.1 blps
Mg 24.305 mg.gga.psp blps

LATTICE_CONSTANT
1.8897259885789233  // add lattice constant

LATTICE_VECTORS
3.139467140000    0.000000000000    0.000000000000    
0.000000000000    5.455246100000    0.000000000000    
0.000000000000    0.000000000000    10.113728960000    

ATOMIC_POSITIONS
Direct

Li
0.0
2
    0.500000000000    0.168372010000    0.000000000000 1 1 1
    0.000000000000    0.668372010000    0.500000000000 1 1 1
Mg
0.0
6
    0.000000000000    0.664554760000    0.000000000000 1 1 1
    0.000000000000    0.000203620000    0.249098950000 1 1 1
    0.500000000000    0.500203620000    0.250901050000 1 1 1
    0.500000000000    0.164554760000    0.500000000000 1 1 1
    0.500000000000    0.500203620000    0.749098950000 1 1 1
    0.000000000000    0.000203620000    0.750901050000 1 1 1
