ATOMIC_SPECIES
Si  28.0850 si.gga.psp blps

LATTICE_CONSTANT
1.8897259886

LATTICE_VECTORS
        1.9317763709       -3.3459348233        0.0000000000
        1.9317763709        3.3459348233        0.0000000000
        0.0000000000        0.0000000000        6.3831598367

ATOMIC_POSITIONS
Direct

Si #label
0.0000   #magnetism
4 #number of atoms
        0.3333333333        0.6666666667        0.0629865337 m 1 1 1
        0.6666666667        0.3333333333        0.5629865337 m 1 1 1
        0.3333333333        0.6666666667        0.4370134663 m 1 1 1
        0.6666666667        0.3333333333        0.9370134663 m 1 1 1
