%BLOCK LATTICE_CART
2.856774333478    0.000000000000    0.000000000000    
-1.428387166739    2.474039145672    0.000000000000    
0.000000000000    0.000000000000    4.687748284268    
%END BLOCK LATTICE_CART
%BLOCK POSITIONS_FRAC
Al    0.000000000000    0.000000000000    0.000000000000
Al    0.666666666667    0.333333333333    0.500000000000
%END BLOCK POSITIONS_FRAC
%BLOCK SPECIES_POT
Al al.gga.recpot
%END BLOCK SPECIES_POT
