%BLOCK LATTICE_CART
   2.805799707700000   0.000000000000000   0.000000000000000
   1.402899853850000   2.429893824799152   0.000000000000000
   0.000000000000003   0.000000000000002  45.923624135075364
%END BLOCK LATTICE_CART
%BLOCK POSITIONS_FRAC
    Al   0.000000000000000   0.000000000000000   0.000124456474973
    Al   0.333333333300000   0.333333333300000   0.050010987162119
    Al   0.666666666700000   0.666666666700000   0.099861016662681
    Al   0.000000000000000   0.000000000000000   0.149734455632390
    Al   0.333333333300000   0.333333333300000   0.199680335915483
    Al   0.733333333300000   0.733333333300000   0.250305894765511
    Al   0.066666666700000   0.066666666700000   0.300236027959671
    Al   0.400000000000000   0.400000000000000   0.350075683919070
    Al   0.733333333300000   0.733333333300000   0.399919760974558
    Al   0.066666666700000   0.066666666700000   0.450000232053872
    Al   0.733333333300000   0.733333333300000   0.500080707213123
    Al   0.400000000000000   0.400000000000000   0.549924743478287
    Al   0.066666666700000   0.066666666700000   0.599764279008554
    Al   0.733333333300000   0.733333333300000   0.649694233038217
    Al   0.333333333300000   0.333333333300000   0.700319622356325
    Al   0.000000000000000   0.000000000000000   0.750265373815170
    Al   0.666666666700000   0.666666666700000   0.800138724122748
    Al   0.333333333300000   0.333333333300000   0.849988657900206
    Al   0.000000000000000   0.000000000000000   0.899875091887938
    Al   0.666666666700000   0.666666666700000   0.949999747847290
%END BLOCK POSITIONS_FRAC
%BLOCK SPECIES_POT
    Al al_HC.lda.recpot                                                                       
%END BLOCK SPECIES_POT
%BLOCK ION_OPTIMIZATION
           0           0           1
           0           0           1
           0           0           1
           0           0           1
           0           0           1
           0           0           1
           0           0           1
           0           0           1
           0           0           1
           0           0           1
           0           0           1
           0           0           1
           0           0           1
           0           0           1
           0           0           1
           0           0           1
           0           0           1
           0           0           1
           0           0           1
           0           0           1
%END BLOCK ION_OPTIMIZATION
