%BLOCK LATTICE_CART
2.929829327593    0.000000000000    0.000000000000    
0.000000000000    2.929829327593    0.000000000000    
0.000000000000    0.000000000000    2.929829327593    
%END BLOCK LATTICE_CART
%BLOCK POSITIONS_FRAC
Mg    0.000000000000    0.000000000000    0.000000000000
%END BLOCK POSITIONS_FRAC
%BLOCK SPECIES_POT
Mg mg.lda.recpot
%END BLOCK SPECIES_POT
