ATOMIC_SPECIES
Mg 24.305 mg.gga.psp blps
Al 26.981 al.gga.psp blps

LATTICE_CONSTANT
1.8897259885789233  // add lattice constant

LATTICE_VECTORS
3.092763626865    -5.356823737532    0.000000000000    
3.092763626865    5.356823737532    0.000000000000    
0.000000000000    0.000000000000    4.950107380000    

ATOMIC_POSITIONS
Direct

Mg
0.0
6
    0.831327750000    0.168672250000    0.250000000000 1 1 1
    0.337344500000    0.168672250000    0.250000000000 1 1 1
    0.831327750000    0.662655500000    0.250000000000 1 1 1
    0.662655500000    0.831327750000    0.750000000000 1 1 1
    0.168672250000    0.337344500000    0.750000000000 1 1 1
    0.168672250000    0.831327750000    0.750000000000 1 1 1
Al
0.0
2
    0.333333333333    0.666666666667    0.250000000000 1 1 1
    0.666666666667    0.333333333333    0.750000000000 1 1 1
