%BLOCK LATTICE_CART
   2.805799707700000   0.000000000000000   0.000000000000000
   1.402899853850000   2.429893824799152   0.000000000000000
   0.000000000000003   0.000000000000002  46.780974902076387
%END BLOCK LATTICE_CART
%BLOCK POSITIONS_FRAC
    Al   0.000000000000000   0.000000000000000   0.999902965890710
    Al   0.333333333300000   0.333333333300000   0.049773531456762
    Al   0.666666666700000   0.666666666700000   0.099642864621597
    Al   0.000000000000000   0.000000000000000   0.149509874680577
    Al   0.333333333300000   0.333333333300000   0.199423329617349
    Al   0.866666666700000   0.866666666700000   0.250550362702609
    Al   0.200000000000000   0.200000000000000   0.300449973630762
    Al   0.533333333300000   0.533333333300000   0.350294259027507
    Al   0.866666666700000   0.866666666700000   0.400132549994328
    Al   0.200000000000000   0.200000000000000   0.449999816731179
    Al   0.866666666700000   0.866666666700000   0.499867156362738
    Al   0.533333333300000   0.533333333300000   0.549705559899971
    Al   0.200000000000000   0.200000000000000   0.599549849730726
    Al   0.866666666700000   0.866666666700000   0.649449440364291
    Al   0.333333333300000   0.333333333300000   0.700576536361760
    Al   1.000000000000000   1.000000000000000   0.750490131892272
    Al   0.666666666700000   0.666666666700000   0.800357354432165
    Al   0.333333333300000   0.333333333300000   0.850226821362829
    Al   0.000000000000000   0.000000000000000   0.900097362816126
    Al   0.666666666700000   0.666666666700000   0.950000144966461
%END BLOCK POSITIONS_FRAC
%BLOCK SPECIES_POT
    Al al.lda.recpot                                                                          
%END BLOCK SPECIES_POT
%BLOCK ION_OPTIMIZATION
           0           0           1
           0           0           1
           0           0           1
           0           0           1
           0           0           1
           0           0           1
           0           0           1
           0           0           1
           0           0           1
           0           0           1
           0           0           1
           0           0           1
           0           0           1
           0           0           1
           0           0           1
           0           0           1
           0           0           1
           0           0           1
           0           0           1
           0           0           1
%END BLOCK ION_OPTIMIZATION
