%BLOCK LATTICE_CART
   2.805799707700000   0.000000000000000   0.000000000000000
   1.402899853850000   2.429893824799152   0.000000000000000
   0.000000000000003   0.000000000000002  46.690321598775682
%END BLOCK LATTICE_CART
%BLOCK POSITIONS_FRAC
    Al   0.000000000000000   0.000000000000000   0.000002505126721
    Al   0.333333333300000   0.333333333300000   0.049976927299633
    Al   0.666666666700000   0.666666666700000   0.099941068486586
    Al   0.000000000000000   0.000000000000000   0.149903366894371
    Al   0.333333333300000   0.333333333300000   0.199894139476557
    Al   0.966666666700000   0.966666666700000   0.250096337795581
    Al   0.300000000000000   0.300000000000000   0.300091318636636
    Al   0.633333333300000   0.633333333300000   0.350052498370003
    Al   0.966666666700000   0.966666666700000   0.400017358316024
    Al   0.300000000000000   0.300000000000000   0.449999999594210
    Al   0.966666666700000   0.966666666700000   0.499982680858102
    Al   0.633333333300000   0.633333333300000   0.549947594700052
    Al   0.300000000000000   0.300000000000000   0.599908765699069
    Al   0.966666666700000   0.966666666700000   0.649903678446208
    Al   0.333333333300000   0.333333333300000   0.700105830964352
    Al   1.000000000000000   1.000000000000000   0.750096634822296
    Al   0.666666666700000   0.666666666700000   0.800058987617920
    Al   0.333333333300000   0.333333333300000   0.850023127958374
    Al   0.000000000000000   0.000000000000000   0.899997489197743
    Al   0.666666666700000   0.666666666700000   0.949999975793849
%END BLOCK POSITIONS_FRAC
%BLOCK SPECIES_POT
    Al al.lda.recpot                                                                          
%END BLOCK SPECIES_POT
%BLOCK ION_OPTIMIZATION
           0           0           1
           0           0           1
           0           0           1
           0           0           1
           0           0           1
           0           0           1
           0           0           1
           0           0           1
           0           0           1
           0           0           1
           0           0           1
           0           0           1
           0           0           1
           0           0           1
           0           0           1
           0           0           1
           0           0           1
           0           0           1
           0           0           1
           0           0           1
%END BLOCK ION_OPTIMIZATION
