ATOMIC_SPECIES
Al 27 al.lda.lps

LATTICE_CONSTANT
7.50241114482

LATTICE_VECTORS
0.707106781187 0 0 #latvec1
0.353553390593 0.612372435696 0 #latvec2
0 0 12.7017059222 #latvec3

ATOMIC_POSITIONS
Direct

Al #label
0 #magnetism
22 #number of atoms
0 0 0.000130006023467 0 0 1 0 0 0
0.333333333332 0.333333333332 0.0453018150411 0 0 1 0 0 0
0.666666666668 0.666666666668 0.0910498233314 0 0 1 0 0 0
0 0 0.136231511706 0 0 1 0 0 0
0.333333333332 0.333333333332 0.181875043826 0 0 1 0 0 0
0 0 0.227102832733 0 0 1 0 0 0
0.6 0.6 0.272832997934 0 0 1 0 0 0
0.933333333332 0.933333333332 0.318287189126 0 0 1 0 0 0
0.266666666666 0.266666666666 0.363597835601 0 0 1 0 0 0
0.6 0.6 0.409009962127 0 0 1 0 0 0
0.933333333332 0.933333333332 0.454543203945 0 0 1 0 0 0
0.6 0.6 0.500074248057 0 0 1 0 0 0
0.266666666666 0.266666666666 0.545493465753 0 0 1 0 0 0
0.933333333332 0.933333333332 0.590809384893 0 0 1 0 0 0
0.6 0.6 0.636269850898 0 0 1 0 0 0
0 0 0.682009378712 0 0 1 0 0 0
0.333333333332 0.333333333332 0.727233937254 0 0 1 0 0 0
0 0 0.772874418828 0 0 1 0 0 0
0.666666666668 0.666666666668 0.818041121404 0 0 1 0 0 0
0.333333333332 0.333333333332 0.863771897839 0 0 1 0 0 0
0 0 0.908932744349 0 0 1 0 0 0
0.666666666668 0.666666666668 0.954527330617 0 0 1 0 0 0
