ATOMIC_SPECIES
Al 27 al.lda.lps

LATTICE_CONSTANT
7.50241114482

LATTICE_VECTORS
0.707106781187 0 0 #latvec1
0.353553390593 0.612372435696 0 #latvec2
0 0 12.7017059222 #latvec3

ATOMIC_POSITIONS
Direct

Al #label
0 #magnetism
22 #number of atoms
0 0 0.000149412275726 0 0 1 0 0 0
0.333333333332 0.333333333332 0.045344825612 0 0 1 0 0 0
0.666666666668 0.666666666668 0.0910498228329 0 0 1 0 0 0
0 0 0.136267230717 0 0 1 0 0 0
0.333333333332 0.333333333332 0.181847836196 0 0 1 0 0 0
0 0 0.226861164439 0 0 1 0 0 0
0.5 0.5 0.273157346343 0 0 1 0 0 0
0.833333333332 0.833333333332 0.318209410939 0 0 1 0 0 0
0.166666666668 0.166666666668 0.363613431395 0 0 1 0 0 0
0.5 0.5 0.409009393836 0 0 1 0 0 0
0.833333333332 0.833333333332 0.454513370055 0 0 1 0 0 0
0.5 0.5 0.500023640863 0 0 1 0 0 0
0.166666666668 0.166666666668 0.545429130249 0 0 1 0 0 0
0.833333333332 0.833333333332 0.590850398677 0 0 1 0 0 0
0.5 0.5 0.635920607138 0 0 1 0 0 0
0 0 0.682233111486 0 0 1 0 0 0
0.333333333332 0.333333333332 0.727262235359 0 0 1 0 0 0
0 0 0.772851052851 0 0 1 0 0 0
0.666666666668 0.666666666668 0.818076419329 0 0 1 0 0 0
0.333333333332 0.333333333332 0.863784114933 0 0 1 0 0 0
0 0 0.908980328996 0 0 1 0 0 0
0.666666666668 0.666666666668 0.954565715477 0 0 1 0 0 0
