%BLOCK LATTICE_CART
   2.805799707700000   0.000000000000000   0.000000000000000
   1.402899853850000   2.429893824799152   0.000000000000000
   0.000000000000003   0.000000000000002  46.650293854553929
%END BLOCK LATTICE_CART
%BLOCK POSITIONS_FRAC
    Al   1.000000000000000   1.000000000000000   0.000014687882182
    Al   0.333333333300000   0.333333333300000   0.050000220780922
    Al   0.666666666700000   0.666666666700000   0.099999952714119
    Al   0.000000000000000   0.000000000000000   0.149999933696678
    Al   0.333333333300000   0.333333333300000   0.199999925579851
    Al   0.666666666700000   0.666666666700000   0.249999949303875
    Al   0.000000000000000   0.000000000000000   0.299999989357116
    Al   0.333333333300000   0.333333333300000   0.349999747508304
    Al   0.666666666700000   0.666666666700000   0.399985272891488
    Al   0.000000000000000   0.000000000000000   0.449999989941370
    Al   0.666666666700000   0.666666666700000   0.500014741176317
    Al   0.333333333300000   0.333333333300000   0.550000301751085
    Al   1.000000000000000   1.000000000000000   0.600000053758415
    Al   0.666666666700000   0.666666666700000   0.650000044986107
    Al   0.333333333300000   0.333333333300000   0.700000036167777
    Al   1.000000000000000   1.000000000000000   0.750000048422854
    Al   0.666666666700000   0.666666666700000   0.800000067251698
    Al   0.333333333300000   0.333333333300000   0.849999796652665
    Al   0.000000000000000   0.000000000000000   0.899985288776791
    Al   0.666666666700000   0.666666666700000   0.949999970281307
%END BLOCK POSITIONS_FRAC
%BLOCK SPECIES_POT
    Al al.lda.recpot                                                                          
%END BLOCK SPECIES_POT
%BLOCK ION_OPTIMIZATION
           0           0           1
           0           0           1
           0           0           1
           0           0           1
           0           0           1
           0           0           1
           0           0           1
           0           0           1
           0           0           1
           0           0           1
           0           0           1
           0           0           1
           0           0           1
           0           0           1
           0           0           1
           0           0           1
           0           0           1
           0           0           1
           0           0           1
           0           0           1
%END BLOCK ION_OPTIMIZATION
