ATOMIC_SPECIES
Al 13 al.lda.lps

LATTICE_CONSTANT
7.50241114482312  // add lattice constant

LATTICE_VECTORS 
0.7071067811865475    0.000000000000    0.000000000000    
0.35355339059327373    0.6123724356957945    0.000000000000    
0.000000000000    0.000000000000    5.773502691896   

ATOMIC_POSITIONS
Direct

Al
0.0
5
   0.00000000000 0.00000000000 0.0 1 1 1
   0.33333333333 0.33333333333 0.1 1 1 1
   0.66666666667 0.66666666667 0.2 1 1 1
   0.00000000000 0.00000000000 0.3 1 1 1
   0.33333333333 0.33333333333 0.4 1 1 1
