%BLOCK LATTICE_CART
-2.233634082271    2.233634082271    1.218537128104    
2.233634082271    -2.233634082271    1.218537128104    
2.233634082271    2.233634082271    -1.218537128104    
%END BLOCK LATTICE_CART
%BLOCK POSITIONS_FRAC
Si    0.000000000000    0.000000000000    0.000000000000
Si    0.750000000000    0.250000000000    0.500000000000
%END BLOCK POSITIONS_FRAC
%BLOCK SPECIES_POT
Si si.gga.recpot
%END BLOCK SPECIES_POT
