%BLOCK LATTICE_CART
2.720024349400    -4.711220370985    0.000000000000    
2.720024349400    4.711220370985    0.000000000000    
0.000000000000    0.000000000000    8.585342620000    
%END BLOCK LATTICE_CART
%BLOCK POSITIONS_FRAC
Mg    0.333333333333    0.666666666667    0.063496340000
Mg    0.666666666667    0.333333333333    0.563496340000
Mg    0.666666666667    0.333333333333    0.936503660000
Mg    0.333333333333    0.666666666667    0.436503660000
Al    0.000000000000    0.000000000000    0.000000000000
Al    0.000000000000    0.000000000000    0.500000000000
Al    0.171334900000    0.342669800000    0.750000000000
Al    0.828665100000    0.171334900000    0.250000000000
Al    0.342669800000    0.171334900000    0.250000000000
Al    0.657330200000    0.828665100000    0.750000000000
Al    0.171334900000    0.828665100000    0.750000000000
Al    0.828665100000    0.657330200000    0.250000000000
%END BLOCK POSITIONS_FRAC
%BLOCK SPECIES_POT
Mg mg.gga.recpot
Al al.gga.recpot
%END BLOCK SPECIES_POT
