%BLOCK LATTICE_CART
  -1.763438055209921   1.763686027207425   1.763686059676707
   1.763686037596579  -1.763438039702223   1.763686044191698
   1.763686046311633   1.763686020437470  -1.763438048477960
%END BLOCK LATTICE_CART
%BLOCK POSITIONS_FRAC
    Mg   0.000000000000000   0.000000000000000   0.000000000000000
%END BLOCK POSITIONS_FRAC
%BLOCK SPECIES_POT
    Mg mg.lda.recpot                                                                          
%END BLOCK SPECIES_POT
