ATOMIC_SPECIES
Al 26.981539 Al_ONCV_PBE-1.2.upf

LATTICE_CONSTANT
7.4984327225523  // add lattice constant

LATTICE_VECTORS
0.707106781187    0.000000000000    0.000000000000    
0.353553390593    0.612372435696    0.000000000000    
0.000000000000    0.000000000000    12.701705922171765  

ATOMIC_POSITIONS
Direct

Al
0.0
22
    -1.9246884567E-30 -1.9913906904E-30  1.8706482466E-04 1 1 1
     3.3333333330E-01  3.3333333330E-01  4.5371020199E-02 1 1 1
     6.6666666670E-01  6.6666666670E-01  9.0891367584E-02 1 1 1
    -1.9113933583E-30 -1.9780955920E-30  1.3610168224E-01 1 1 1
     3.3333333330E-01  3.3333333330E-01  1.8170119569E-01 1 1 1
    -1.9110122935E-30 -1.9777145272E-30  2.2711514118E-01 1 1 1
     6.0000000000E-01  6.0000000000E-01  2.7296229197E-01 1 1 1
     9.3333333330E-01  9.3333333330E-01  3.1848011668E-01 1 1 1
     2.6666666670E-01  2.6666666670E-01  3.6376866206E-01 1 1 1
     6.0000000000E-01  6.0000000000E-01  4.0895808725E-01 1 1 1
     9.3333333330E-01  9.3333333330E-01  4.5454545455E-01 1 1 1
     6.0000000000E-01  6.0000000000E-01  5.0013282185E-01 1 1 1
     2.6666666670E-01  2.6666666670E-01  5.4532224704E-01 1 1 1
     9.3333333330E-01  9.3333333330E-01  5.9061079242E-01 1 1 1
     6.0000000000E-01  6.0000000000E-01  6.3612861713E-01 1 1 1
    -1.9110122935E-30 -1.9777145272E-30  6.8197576792E-01 1 1 1
     3.3333333330E-01  3.3333333330E-01  7.2738971341E-01 1 1 1
    -1.9113933583E-30 -1.9780955920E-30  7.7298922686E-01 1 1 1
     6.6666666670E-01  6.6666666670E-01  8.1819954152E-01 1 1 1
     3.3333333330E-01  3.3333333330E-01  8.6371988890E-01 1 1 1
    -1.9246884567E-30 -1.9913906904E-30  9.0890384428E-01 1 1 1
     6.6666666670E-01  6.6666666670E-01  9.5454545455E-01 1 1 1
