%BLOCK LATTICE_CART
2.757268298665    0.000000000000    0.000000000000    
-1.378634149332    2.387864391693    0.000000000000    
0.000000000000    0.000000000000    4.630899970880    
%END BLOCK LATTICE_CART
%BLOCK POSITIONS_FRAC
Al    0.000000000000    0.000000000000    0.000000000000
Al    0.666666666667    0.333333333333    0.500000000000
%END BLOCK POSITIONS_FRAC
%BLOCK SPECIES_POT
Al al.lda.recpot
%END BLOCK SPECIES_POT
