%BLOCK LATTICE_CART
   2.805799707700000   0.000000000000000   0.000000000000000
   1.402899853850000   2.429893824799152   0.000000000000000
   0.000000000000003   0.000000000000002  50.620190733224980
%END BLOCK LATTICE_CART
%BLOCK POSITIONS_FRAC
    Al   0.000000000000000   0.000000000000000   0.999978575175684
    Al   0.333333333300000   0.333333333300000   0.045175859315400
    Al   0.666666666700000   0.666666666700000   0.090332042596994
    Al   0.000000000000000   0.000000000000000   0.135549415903538
    Al   0.333333333300000   0.333333333300000   0.181028374637181
    Al   0.000000000000000   0.000000000000000   0.226617851583152
    Al   0.466666666700000   0.466666666700000   0.273441527994893
    Al   0.800000000000000   0.800000000000000   0.318755678510465
    Al   0.133333333300000   0.133333333300000   0.363916375982448
    Al   0.466666666700000   0.466666666700000   0.409113568578956
    Al   0.800000000000000   0.800000000000000   0.454545095101665
    Al   0.466666666700000   0.466666666700000   0.499976682004490
    Al   0.133333333300000   0.133333333300000   0.545173943784165
    Al   0.800000000000000   0.800000000000000   0.590334802038916
    Al   0.466666666700000   0.466666666700000   0.635649120154720
    Al   1.000000000000000   1.000000000000000   0.682472992477690
    Al   0.333333333300000   0.333333333300000   0.728062679965156
    Al   1.000000000000000   1.000000000000000   0.773541823390249
    Al   0.666666666700000   0.666666666700000   0.818759367646907
    Al   0.333333333300000   0.333333333300000   0.863915661619269
    Al   0.000000000000000   0.000000000000000   0.909113023599836
    Al   0.666666666700000   0.666666666700000   0.954545807001821
%END BLOCK POSITIONS_FRAC
%BLOCK SPECIES_POT
    Al al_HC.lda.recpot                                                                       
%END BLOCK SPECIES_POT
%BLOCK ION_OPTIMIZATION
           0           0           1
           0           0           1
           0           0           1
           0           0           1
           0           0           1
           0           0           1
           0           0           1
           0           0           1
           0           0           1
           0           0           1
           0           0           1
           0           0           1
           0           0           1
           0           0           1
           0           0           1
           0           0           1
           0           0           1
           0           0           1
           0           0           1
           0           0           1
           0           0           1
           0           0           1
%END BLOCK ION_OPTIMIZATION
