ATOMIC_SPECIES
Li 6.941 li.gga.psp.1 blps
Mg 24.305 mg.gga.psp blps
Al 26.981 al.gga.psp blps

LATTICE_CONSTANT
1.8897259885789233  // add lattice constant

LATTICE_VECTORS
10.520164000000    0.000000000000    0.000000000000    
0.000000000000    10.520164000000    0.000000000000    
0.000000000000    0.000000000000    10.520164000000    

ATOMIC_POSITIONS
Direct

Li
0.0
2
    0.000000000000    0.000000000000    0.000000000000 1 1 1
    0.500000000000    0.500000000000    0.500000000000 1 1 1
Mg
0.0
32
    0.958043000000    0.356988000000    0.356988000000 1 1 1
    0.169192000000    0.169192000000    0.169192000000 1 1 1
    0.458043000000    0.143012000000    0.143012000000 1 1 1
    0.669192000000    0.330808000000    0.330808000000 1 1 1
    0.541957000000    0.856988000000    0.143012000000 1 1 1
    0.143012000000    0.143012000000    0.458043000000 1 1 1
    0.143012000000    0.541957000000    0.856988000000 1 1 1
    0.330808000000    0.330808000000    0.669192000000 1 1 1
    0.356988000000    0.958043000000    0.356988000000 1 1 1
    0.856988000000    0.143012000000    0.541957000000 1 1 1
    0.856988000000    0.541957000000    0.143012000000 1 1 1
    0.356988000000    0.356988000000    0.958043000000 1 1 1
    0.330808000000    0.669192000000    0.330808000000 1 1 1
    0.143012000000    0.856988000000    0.541957000000 1 1 1
    0.143012000000    0.458043000000    0.143012000000 1 1 1
    0.541957000000    0.143012000000    0.856988000000 1 1 1
    0.458043000000    0.856988000000    0.856988000000 1 1 1
    0.669192000000    0.669192000000    0.669192000000 1 1 1
    0.958043000000    0.643012000000    0.643012000000 1 1 1
    0.169192000000    0.830808000000    0.830808000000 1 1 1
    0.041957000000    0.356988000000    0.643012000000 1 1 1
    0.643012000000    0.643012000000    0.958043000000 1 1 1
    0.643012000000    0.041957000000    0.356988000000 1 1 1
    0.830808000000    0.830808000000    0.169192000000 1 1 1
    0.856988000000    0.458043000000    0.856988000000 1 1 1
    0.356988000000    0.643012000000    0.041957000000 1 1 1
    0.356988000000    0.041957000000    0.643012000000 1 1 1
    0.856988000000    0.856988000000    0.458043000000 1 1 1
    0.830808000000    0.169192000000    0.830808000000 1 1 1
    0.643012000000    0.356988000000    0.041957000000 1 1 1
    0.643012000000    0.958043000000    0.643012000000 1 1 1
    0.041957000000    0.643012000000    0.356988000000 1 1 1
Al
0.0
24
    0.723150500000    0.090716500000    0.090716500000 1 1 1
    0.223150500000    0.409283500000    0.409283500000 1 1 1
    0.276849500000    0.909283500000    0.090716500000 1 1 1
    0.409283500000    0.223150500000    0.409283500000 1 1 1
    0.909283500000    0.090716500000    0.276849500000 1 1 1
    0.090716500000    0.723150500000    0.090716500000 1 1 1
    0.090716500000    0.909283500000    0.276849500000 1 1 1
    0.090716500000    0.090716500000    0.723150500000 1 1 1
    0.090716500000    0.276849500000    0.909283500000 1 1 1
    0.909283500000    0.276849500000    0.090716500000 1 1 1
    0.409283500000    0.409283500000    0.223150500000 1 1 1
    0.276849500000    0.090716500000    0.909283500000 1 1 1
    0.223150500000    0.590716500000    0.590716500000 1 1 1
    0.723150500000    0.909283500000    0.909283500000 1 1 1
    0.776849500000    0.409283500000    0.590716500000 1 1 1
    0.909283500000    0.723150500000    0.909283500000 1 1 1
    0.409283500000    0.590716500000    0.776849500000 1 1 1
    0.590716500000    0.223150500000    0.590716500000 1 1 1
    0.590716500000    0.409283500000    0.776849500000 1 1 1
    0.590716500000    0.590716500000    0.223150500000 1 1 1
    0.590716500000    0.776849500000    0.409283500000 1 1 1
    0.409283500000    0.776849500000    0.590716500000 1 1 1
    0.909283500000    0.909283500000    0.723150500000 1 1 1
    0.776849500000    0.590716500000    0.409283500000 1 1 1
