%BLOCK LATTICE_CART
   2.828739581100000   0.000000000000000   0.000000000000000
   1.414369790550000   2.449760337923151   0.000000000000000
   0.000000000000003   0.000000000000002  50.927098283049339
%END BLOCK LATTICE_CART
%BLOCK POSITIONS_FRAC
    Al   0.000000000000000   0.000000000000000   0.999902869398083
    Al   0.333333333300000   0.333333333300000   0.045296924752212
    Al   0.666666666700000   0.666666666700000   0.090693827880199
    Al   0.000000000000000   0.000000000000000   0.136081528210582
    Al   0.333333333300000   0.333333333300000   0.181450943234090
    Al   0.000000000000000   0.000000000000000   0.226705711088002
    Al   0.566666666700000   0.566666666700000   0.273278851074767
    Al   0.900000000000000   0.900000000000000   0.318531446310501
    Al   0.233333333300000   0.233333333300000   0.363883642343361
    Al   0.566666666700000   0.566666666700000   0.409224109977008
    Al   0.900000000000000   0.900000000000000   0.454546596645623
    Al   0.566666666700000   0.566666666700000   0.499869038839247
    Al   0.233333333300000   0.233333333300000   0.545209285456208
    Al   0.900000000000000   0.900000000000000   0.590561161834888
    Al   0.566666666700000   0.566666666700000   0.635813198193474
    Al   1.000000000000000   1.000000000000000   0.682385715937386
    Al   0.333333333300000   0.333333333300000   0.727639758934350
    Al   0.000000000000000   0.000000000000000   0.773008504079227
    Al   0.666666666700000   0.666666666700000   0.818395525361427
    Al   0.333333333300000   0.333333333300000   0.863791894924441
    Al   1.000000000000000   1.000000000000000   0.909185577237749
    Al   0.666666666700000   0.666666666700000   0.954544161505063
%END BLOCK POSITIONS_FRAC
%BLOCK SPECIES_POT
    Al al.lda.recpot                                                                          
%END BLOCK SPECIES_POT
%BLOCK ION_OPTIMIZATION
           0           0           1
           0           0           1
           0           0           1
           0           0           1
           0           0           1
           0           0           1
           0           0           1
           0           0           1
           0           0           1
           0           0           1
           0           0           1
           0           0           1
           0           0           1
           0           0           1
           0           0           1
           0           0           1
           0           0           1
           0           0           1
           0           0           1
           0           0           1
           0           0           1
           0           0           1
%END BLOCK ION_OPTIMIZATION
