%BLOCK LATTICE_CART
0.000000000000    10.521688000000    0.000000000000    
14.796792000000    0.000000000000    0.000000000000    
0.000000000000    -5.234723000000    -7.463306000000    
%END BLOCK LATTICE_CART
%BLOCK POSITIONS_FRAC
Li    0.315960000000    0.000000000000    0.709103000000
Li    0.815960000000    0.500000000000    0.709103000000
Mg    0.603102000000    0.000000000000    0.288207000000
Mg    0.008862000000    0.000000000000    0.656659000000
Mg    0.999260000000    0.000000000000    0.998672000000
Mg    0.343150000000    0.000000000000    0.342919000000
Mg    0.539336000000    0.859935000000    0.997193000000
Mg    0.442202000000    0.843326000000    0.601943000000
Mg    0.841741000000    0.842487000000    0.397791000000
Mg    0.827430500000    0.827614500000    0.000932000000
Mg    0.198969500000    0.801992500000    0.685403000000
Mg    0.514958000000    0.801028000000    0.316445000000
Mg    0.514958000000    0.198972000000    0.316445000000
Mg    0.198969500000    0.198007500000    0.685403000000
Mg    0.827430500000    0.172385500000    0.000932000000
Mg    0.841741000000    0.157513000000    0.397791000000
Mg    0.442202000000    0.156674000000    0.601943000000
Mg    0.539336000000    0.140065000000    0.997193000000
Mg    0.103102000000    0.500000000000    0.288207000000
Mg    0.508862000000    0.500000000000    0.656659000000
Mg    0.499260000000    0.500000000000    0.998672000000
Mg    0.843150000000    0.500000000000    0.342919000000
Mg    0.039336000000    0.359935000000    0.997193000000
Mg    0.942202000000    0.343326000000    0.601943000000
Mg    0.341741000000    0.342487000000    0.397791000000
Mg    0.327430500000    0.327614500000    0.000932000000
Mg    0.698969500000    0.301992500000    0.685403000000
Mg    0.014958000000    0.301028000000    0.316445000000
Mg    0.014958000000    0.698972000000    0.316445000000
Mg    0.698969500000    0.698007500000    0.685403000000
Mg    0.327430500000    0.672385500000    0.000932000000
Mg    0.341741000000    0.657513000000    0.397791000000
Mg    0.942202000000    0.656674000000    0.601943000000
Mg    0.039336000000    0.640065000000    0.997193000000
Al    0.815017000000    0.000000000000    0.180003000000
Al    0.631226000000    0.000000000000    0.817716000000
Al    0.276264000000    0.909176000000    0.001280000000
Al    0.094167500000    0.907608500000    0.368656000000
Al    0.727124500000    0.907236500000    0.634622000000
Al    0.497670000000    0.316435000000    0.815174000000
Al    0.681857500000    0.316315500000    0.183922000000
Al    0.681857500000    0.683684500000    0.183922000000
Al    0.497670000000    0.683565000000    0.815174000000
Al    0.727124500000    0.092763500000    0.634622000000
Al    0.094167500000    0.092391500000    0.368656000000
Al    0.276264000000    0.090824000000    0.001280000000
Al    0.315017000000    0.500000000000    0.180003000000
Al    0.131226000000    0.500000000000    0.817716000000
Al    0.776264000000    0.409176000000    0.001280000000
Al    0.594167500000    0.407608500000    0.368656000000
Al    0.227124500000    0.407236500000    0.634622000000
Al    0.997670000000    0.816435000000    0.815174000000
Al    0.181857500000    0.816315500000    0.183922000000
Al    0.181857500000    0.183684500000    0.183922000000
Al    0.997670000000    0.183565000000    0.815174000000
Al    0.227124500000    0.592763500000    0.634622000000
Al    0.594167500000    0.592391500000    0.368656000000
Al    0.776264000000    0.590824000000    0.001280000000
%END BLOCK POSITIONS_FRAC
%BLOCK SPECIES_POT
Li li.gga.recpot
Mg mg.gga.recpot
Al al.gga.recpot
%END BLOCK SPECIES_POT
