ATOMIC_SPECIES
Ga  Ga_mass  Ga_pesudopotential
P  P_mass  P_pesudopotential
H  H_mass  H_pesudopotential
O  O_mass  O_pesudopotential
C  C_mass  C_pesudopotential

NUMERICAL_ORBITAL
Ga_orbital
P_orbital
H_orbital
O_orbital
C_orbital

LATTICE_CONSTANT
1.889727000000

LATTICE_VECTORS
15.605759999987  0.000000000000  0.000000000000
0.000000000000  16.552409999993  0.000000000000
0.000000000000  0.000000000000  30.388121999996

ATOMIC_POSITIONS
Direct

Ga
0
60
0.001884048022  0.022880744644  0.015849815579  1  1  1
0.997348525277  0.677972890419  0.015180033454  1  1  1
0.001702605675  0.354058030464  0.015983098995  1  1  1
0.501855635356  0.022456509055  0.015890280972  1  1  1
0.497699907703  0.676857888173  0.008610121736  1  1  1
0.498105106859  0.358000561793  0.015826456582  1  1  1
0.250802648322  0.022836287577  0.016023719603  1  1  1
0.250389615984  0.689574878443  0.016601831611  1  1  1
0.250995090506  0.358728289564  0.015838182234  1  1  1
0.750389050651  0.022021399719  0.016035260944  1  1  1
0.744042197141  0.677971256962  0.011587833636  1  1  1
0.749529212866  0.353689859504  0.016051387411  1  1  1
0.375851164938  0.164227237537  0.063915065680  1  1  1
0.375922836943  0.830005581564  0.064308333294  1  1  1
0.376295603442  0.497498471279  0.064551347408  1  1  1
0.875802786019  0.160563231157  0.063747418374  1  1  1
0.875005319062  0.829075876439  0.064031874971  1  1  1
0.872043343178  0.496762747200  0.064901264655  1  1  1
0.124801170804  0.164129904575  0.063950995039  1  1  1
0.124282132218  0.833146091779  0.064713166339  1  1  1
0.124182861842  0.496878424586  0.064710864952  1  1  1
0.624386442682  0.164090673425  0.063964516315  1  1  1
0.624329643260  0.828922724918  0.064224690020  1  1  1
0.623274577098  0.497111352325  0.064760731283  1  1  1
0.000000000000  0.000000000000  0.130439996734  0  0  0
0.000000000000  0.666670024140  0.130439996734  0  0  0
0.000000000000  0.333330005400  0.130439996734  0  0  0
0.500000000025  0.000000000000  0.130439996734  0  0  0
0.500000000025  0.666670024140  0.130439996734  0  0  0
0.500000000025  0.333330005400  0.130439996734  0  0  0
0.249999999980  0.000000000000  0.130439996734  0  0  0
0.249999999980  0.666670024140  0.130439996734  0  0  0
0.249999999980  0.333330005400  0.130439996734  0  0  0
0.750000000266  0.000000000000  0.130439996734  0  0  0
0.750000000266  0.666670024140  0.130439996734  0  0  0
0.750000000266  0.333330005400  0.130439996734  0  0  0
0.375867043507  0.164299175070  0.196811138432  1  1  1
0.376021573994  0.829549995459  0.196542729819  1  1  1
0.376495037503  0.497909895648  0.196165439953  1  1  1
0.876115194683  0.163623074300  0.196784548762  1  1  1
0.874892058643  0.828721126020  0.196971008225  1  1  1
0.871538231056  0.497497691596  0.195916111412  1  1  1
0.124579496898  0.164504181158  0.196776599161  1  1  1
0.124206291123  0.832649504164  0.196224482918  1  1  1
0.123989125456  0.497493786890  0.195983994788  1  1  1
0.624260578668  0.164001336443  0.196757075658  1  1  1
0.624335901725  0.828529068552  0.196735978555  1  1  1
0.623292920970  0.497653583268  0.196034867404  1  1  1
0.001791771020  0.023206515123  0.244650219136  1  1  1
0.997566291528  0.678025362901  0.247907418196  1  1  1
0.001724066308  0.358222835402  0.244614970176  1  1  1
0.501898928970  0.022456467429  0.244671037699  1  1  1
0.497675676735  0.677033634533  0.254170667640  1  1  1
0.498217228009  0.358314771743  0.244782910829  1  1  1
0.250822868874  0.022817236516  0.244569856940  1  1  1
0.250351128248  0.689909035283  0.244532980965  1  1  1
0.251030212320  0.358886887373  0.244824578208  1  1  1
0.750518590246  0.022222203419  0.244513998766  1  1  1
0.743974476940  0.678222478709  0.251657140313  1  1  1
0.749460273764  0.354184135599  0.244741700730  1  1  1

P
0
60
0.376184737863  0.091418352616  0.995417033686  1  1  1
0.373956818846  0.757964700954  0.996231807876  1  1  1
0.375332338783  0.428262556713  0.994500329725  1  1  1
0.875973697666  0.090276878440  0.994865240107  1  1  1
0.872623994366  0.750273144425  0.997056726400  1  1  1
0.875375051196  0.424310669862  0.995875766657  1  1  1
0.126096044045  0.091985589542  0.995125787588  1  1  1
0.121578119323  0.754187238256  0.997577631589  1  1  1
0.124089490719  0.425736831380  0.995301131412  1  1  1
0.626157573659  0.091983612731  0.995253917319  1  1  1
0.622672843296  0.756257097101  0.996930386457  1  1  1
0.625852898983  0.424465267100  0.995800057008  1  1  1
0.999321770333  0.247506283992  0.066699878265  1  1  1
0.999101151533  0.914511687675  0.066266784992  1  1  1
0.998530320465  0.578381393673  0.068861954359  1  1  1
0.500149335054  0.249450500377  0.066156883259  1  1  1
0.500520271762  0.914362500777  0.066516130765  1  1  1
0.499451319301  0.582353004864  0.067043252167  1  1  1
0.250003092021  0.249513203440  0.065962713013  1  1  1
0.250488718502  0.914450018688  0.066483323963  1  1  1
0.249552150661  0.581010794698  0.066530670294  1  1  1
0.751237579964  0.246943546699  0.066738750040  1  1  1
0.749994489177  0.913443637635  0.066445142074  1  1  1
0.748330487731  0.580780300402  0.067913115933  1  1  1
0.125000000022  0.083329997984  0.130439996734  0  0  0
0.125000000022  0.749999999849  0.130439996734  0  0  0
0.125000000022  0.416669994571  0.130439996734  0  0  0
0.624999999984  0.083329997984  0.130439996734  0  0  0
0.624999999984  0.749999999849  0.130439996734  0  0  0
0.624999999984  0.416669994571  0.130439996734  0  0  0
0.375000000004  0.083329997984  0.130439996734  0  0  0
0.375000000004  0.749999999849  0.130439996734  0  0  0
0.375000000004  0.416669994571  0.130439996734  0  0  0
0.875000000095  0.083329997984  0.130439996734  0  0  0
0.875000000095  0.749999999849  0.130439996734  0  0  0
0.875000000095  0.416669994571  0.130439996734  0  0  0
0.999985375448  0.249524683757  0.194668447036  1  1  1
0.999069115673  0.914205935248  0.194624010757  1  1  1
0.998299747235  0.579647029231  0.192996942328  1  1  1
0.500156764481  0.249466730982  0.194664657953  1  1  1
0.500554150614  0.914062680908  0.194300746640  1  1  1
0.499468718123  0.583406904113  0.194674444383  1  1  1
0.249974392750  0.249512734909  0.194856844435  1  1  1
0.250526713911  0.914077871747  0.194369605197  1  1  1
0.249595287569  0.581475699915  0.194349343634  1  1  1
0.750689197792  0.247573833732  0.194134336257  1  1  1
0.749940862183  0.913146354629  0.194480249329  1  1  1
0.748065336665  0.582270357070  0.194050912948  1  1  1
0.376236521964  0.091312882179  0.265282654664  1  1  1
0.373793990764  0.758617081003  0.265238828882  1  1  1
0.375338772929  0.428339437994  0.266220668310  1  1  1
0.875975232275  0.091170617863  0.265255517447  1  1  1
0.872873559677  0.751260153625  0.265013818208  1  1  1
0.874591876540  0.425742038125  0.265243716298  1  1  1
0.126137086449  0.092023617825  0.265538560652  1  1  1
0.121992896380  0.754788080707  0.264414843395  1  1  1
0.125066856962  0.427361700814  0.265728502265  1  1  1
0.626187642188  0.091897878772  0.265473771498  1  1  1
0.622350269871  0.757316732954  0.264937982783  1  1  1
0.625777819639  0.424815694310  0.265073543043  1  1  1

H
0
38
0.582551842402  0.669714766738  0.384399890767  1  1  1
0.711233611688  0.628807566950  0.361343135906  1  1  1
0.511475292914  0.734217135147  0.369428964597  1  1  1
0.507513461595  0.632193050929  0.339350982804  1  1  1
0.550518645535  0.823348047219  0.325555788253  1  1  1
0.451546312360  0.823621680447  0.328230099723  1  1  1
0.721509766343  0.709114030943  0.387896945408  1  1  1
0.460376678723  0.558056272356  0.307423336704  1  1  1
0.785203234520  0.541692697052  0.303245902372  1  1  1
0.587028270918  0.672766763928  0.880941763061  1  1  1
0.714796709410  0.632475424867  0.904708039001  1  1  1
0.512760776550  0.734754201770  0.894432198854  1  1  1
0.509138029649  0.632089390700  0.923856397627  1  1  1
0.549797878322  0.823724162489  0.938424905462  1  1  1
0.450760445076  0.822704324057  0.935726887589  1  1  1
0.721160164430  0.719831088802  0.885931399715  1  1  1
0.459570177831  0.558345972090  0.955216065483  1  1  1
0.786351872336  0.541092925832  0.960228114387  1  1  1
0.095555479074  0.676707958568  0.377349712219  1  1  1
0.193905875814  0.722582714363  0.337887921563  1  1  1
0.007240206590  0.731435740027  0.363125074718  1  1  1
0.017599347838  0.628367390809  0.353485138313  1  1  1
0.038973511728  0.811193427626  0.324560068997  1  1  1
0.939833802093  0.796412548476  0.324445318686  1  1  1
0.235092675472  0.715014636494  0.385322946436  1  1  1
0.956456356366  0.535559852651  0.303234228283  1  1  1
0.056245888429  0.536153626976  0.300280337504  1  1  1
0.095335457731  0.675967036109  0.886683961767  1  1  1
0.191857544586  0.721480234746  0.926608801342  1  1  1
0.007288428146  0.731428146922  0.900360581003  1  1  1
0.016574102197  0.628339987976  0.910284862779  1  1  1
0.039314426121  0.810761218008  0.939059084341  1  1  1
0.939980296218  0.796801166552  0.938700933772  1  1  1
0.235150935125  0.713979849152  0.879635998705  1  1  1
0.955665466470  0.535173114731  0.959955611226  1  1  1
0.055474241045  0.535807155295  0.962626754302  1  1  1
0.685904722086  0.542916801782  0.299614852348  1  1  1
0.686837687740  0.542065665998  0.963463734252  1  1  1

O
0
20
0.690975370092  0.657587855144  0.387931894476  1  1  1
0.519950848478  0.675354022782  0.377214477018  1  1  1
0.502958383692  0.827332433658  0.347183341338  1  1  1
0.503732741699  0.601211181830  0.307227098262  1  1  1
0.696453082803  0.666769687989  0.879724659080  1  1  1
0.523584973731  0.676285027238  0.886567436367  1  1  1
0.502187929714  0.827874384616  0.916826455880  1  1  1
0.503870231042  0.600631199676  0.955779346527  1  1  1
0.191823463790  0.691685261259  0.365831989086  1  1  1
0.029806792216  0.671064461781  0.376591371204  1  1  1
0.990125146823  0.803252739806  0.345418814058  1  1  1
0.006418693762  0.572322919160  0.307864591772  1  1  1
0.191570982536  0.690111715891  0.898765905454  1  1  1
0.029541922860  0.670925609535  0.887164005331  1  1  1
0.990619918051  0.803692849185  0.917969448951  1  1  1
0.005540862475  0.572143961269  0.955429547134  1  1  1
0.735829246799  0.579033061280  0.306781932727  1  1  1
0.736904571022  0.578464388901  0.956883149463  1  1  1
0.616579266773  0.488689578640  0.453753471750  1  1  1
0.617308939590  0.489459542615  0.814303042090  1  1  1

C
0
2
0.643546436662  0.480446794293  0.418931170801  1  1  1
0.646299185389  0.487351653388  0.848940817755  1  1  1
