ATOMIC_SPECIES
Ga  Ga_mass  Ga_pesudopotential
P  P_mass  P_pesudopotential
H  H_mass  H_pesudopotential
O  O_mass  O_pesudopotential
C  C_mass  C_pesudopotential

NUMERICAL_ORBITAL
Ga_orbital
P_orbital
H_orbital
O_orbital
C_orbital

LATTICE_CONSTANT
1.889727000000

LATTICE_VECTORS
15.605759999987  0.000000000000  0.000000000000
0.000000000000  16.552409999993  0.000000000000
0.000000000000  0.000000000000  30.388121999996

ATOMIC_POSITIONS
Direct

Ga
0
60
0.001860467947  0.027001222080  0.016062174105  1  1  1
0.996363702602  0.678119654861  0.015011610890  1  1  1
0.003559535547  0.352934842999  0.016898653227  1  1  1
0.499077832941  0.027194853861  0.015777720342  1  1  1
0.491165045374  0.677080312570  0.012142589648  1  1  1
0.489821847281  0.308746429965  0.980906444720  1  1  1
0.250677752332  0.027068278723  0.015942855975  1  1  1
0.244398818518  0.684991594414  0.018925840333  1  1  1
0.255489508103  0.364335539197  0.015202784157  1  1  1
0.749594920899  0.022782723938  0.015907319494  1  1  1
0.744073803358  0.689230633540  0.016039705236  1  1  1
0.762281300707  0.347668154891  0.018858731019  1  1  1
0.381772349235  0.167291344582  0.064522686400  1  1  1
0.374891096003  0.833131307095  0.064763286519  1  1  1
0.376404575012  0.490963930170  0.063754230099  1  1  1
0.876714402342  0.160463539897  0.064039725464  1  1  1
0.875710970737  0.829653913212  0.064139644389  1  1  1
0.875420090123  0.496246300845  0.064543489898  1  1  1
0.129507584904  0.165663811238  0.064169000146  1  1  1
0.123975464386  0.833355173976  0.064439545175  1  1  1
0.124254656629  0.496443470163  0.064709100764  1  1  1
0.617500582235  0.165429212912  0.064267206973  1  1  1
0.623528685200  0.832849391278  0.064267529063  1  1  1
0.623825965078  0.501371708629  0.066652522687  1  1  1
0.000000000000  0.000000000000  0.130439996734  0  0  0
0.000000000000  0.666670024140  0.130439996734  0  0  0
0.000000000000  0.333330005400  0.130439996734  0  0  0
0.500000000025  0.000000000000  0.130439996734  0  0  0
0.500000000025  0.666670024140  0.130439996734  0  0  0
0.500000000025  0.333330005400  0.130439996734  0  0  0
0.249999999980  0.000000000000  0.130439996734  0  0  0
0.249999999980  0.666670024140  0.130439996734  0  0  0
0.249999999980  0.333330005400  0.130439996734  0  0  0
0.750000000266  0.000000000000  0.130439996734  0  0  0
0.750000000266  0.666670024140  0.130439996734  0  0  0
0.750000000266  0.333330005400  0.130439996734  0  0  0
0.378216626440  0.170313183718  0.195881090961  1  1  1
0.375287102613  0.833044363601  0.195874087558  1  1  1
0.376424490575  0.490496046857  0.198547217216  1  1  1
0.876560000186  0.163748892682  0.196285444537  1  1  1
0.875698491337  0.832444307753  0.196319715294  1  1  1
0.876143930477  0.496174645425  0.196078590479  1  1  1
0.129319553535  0.165625444855  0.196436152452  1  1  1
0.124274579492  0.832917530528  0.196285016802  1  1  1
0.124521409794  0.496842285327  0.196034004500  1  1  1
0.617204564003  0.165645797436  0.196251721698  1  1  1
0.624068752459  0.832925430819  0.196446051419  1  1  1
0.623722652623  0.497442491661  0.195913842731  1  1  1
0.001688280386  0.027545116216  0.244490571751  1  1  1
0.997728127809  0.677767269330  0.247722800630  1  1  1
0.003686115633  0.353156250019  0.244358592115  1  1  1
0.498108900942  0.027613965228  0.244656663050  1  1  1
0.496252067522  0.676915681933  0.248475009169  1  1  1
0.489467224168  0.303318250527  0.279749835500  1  1  1
0.250517855170  0.027113477225  0.244608368829  1  1  1
0.249016319280  0.684425753589  0.244145091488  1  1  1
0.255382772077  0.364590262200  0.248050392069  1  1  1
0.749481500529  0.026876736312  0.244548112335  1  1  1
0.748704657989  0.685395587298  0.244696861530  1  1  1
0.762540658506  0.347257195604  0.244228998599  1  1  1

P
0
60
0.375140354714  0.095314624223  0.994812229339  1  1  1
0.368422302800  0.755286565013  0.998419758360  1  1  1
0.379409815059  0.428014317095  0.994509499805  1  1  1
0.874778900720  0.091531805945  0.994686590803  1  1  1
0.872506246678  0.752538061875  0.996415259833  1  1  1
0.879593349466  0.422497436836  0.995960959206  1  1  1
0.126037069045  0.094847407001  0.994730700754  1  1  1
0.119970547537  0.753182654355  0.996695047016  1  1  1
0.123761565835  0.425792242036  0.995666974975  1  1  1
0.625494896458  0.092556236485  0.994981802757  1  1  1
0.617024114226  0.754556036121  0.996057892460  1  1  1
0.626990606850  0.406016899443  0.005764405048  1  1  1
0.001258307000  0.246200717293  0.067152004755  1  1  1
0.999233805606  0.916021450149  0.065657323518  1  1  1
0.999316196205  0.579205400546  0.068758826385  1  1  1
0.501123377358  0.256576662553  0.063147397031  1  1  1
0.499287733051  0.916603238907  0.065718465213  1  1  1
0.497378865308  0.580571555374  0.068028944060  1  1  1
0.253120401520  0.252108524355  0.065308500991  1  1  1
0.249467524566  0.916208735948  0.065714105233  1  1  1
0.250063938718  0.578419045018  0.068229229196  1  1  1
0.750981438355  0.242994413157  0.068607701728  1  1  1
0.750525280586  0.913564958626  0.066007847935  1  1  1
0.750317131330  0.581708144736  0.066415819767  1  1  1
0.125000000022  0.083329997984  0.130439996734  0  0  0
0.125000000022  0.749999999849  0.130439996734  0  0  0
0.125000000022  0.416669994571  0.130439996734  0  0  0
0.624999999984  0.083329997984  0.130439996734  0  0  0
0.624999999984  0.749999999849  0.130439996734  0  0  0
0.624999999984  0.416669994571  0.130439996734  0  0  0
0.375000000004  0.083329997984  0.130439996734  0  0  0
0.375000000004  0.749999999849  0.130439996734  0  0  0
0.375000000004  0.416669994571  0.130439996734  0  0  0
0.875000000095  0.083329997984  0.130439996734  0  0  0
0.875000000095  0.749999999849  0.130439996734  0  0  0
0.875000000095  0.416669994571  0.130439996734  0  0  0
0.001742677327  0.247160973602  0.193727308128  1  1  1
0.000031742886  0.916332066507  0.195272717839  1  1  1
0.999737746498  0.580082192544  0.192773484280  1  1  1
0.500430474602  0.256498919412  0.197249435011  1  1  1
0.499590935028  0.916386982295  0.195161998669  1  1  1
0.498542832414  0.579236766236  0.193230939715  1  1  1
0.251142947065  0.254125631391  0.196253741833  1  1  1
0.249700134824  0.915943424964  0.195128323114  1  1  1
0.250868845752  0.578958608892  0.193562585449  1  1  1
0.750243085190  0.244732836649  0.192895695191  1  1  1
0.750213658484  0.915328633370  0.195238525584  1  1  1
0.750262846617  0.579249817656  0.194095563199  1  1  1
0.374425780950  0.096360636007  0.265318442780  1  1  1
0.372999190245  0.755460416593  0.262526134589  1  1  1
0.380883980572  0.426286962835  0.267641998976  1  1  1
0.875412341841  0.093934081058  0.265514075472  1  1  1
0.874096085725  0.753513184481  0.264132883567  1  1  1
0.880104508147  0.423294688376  0.265236469785  1  1  1
0.125951050241  0.095013231747  0.265869597602  1  1  1
0.122729804840  0.753121263315  0.264467146896  1  1  1
0.123324957617  0.426891653925  0.265561701164  1  1  1
0.624146606343  0.093943230028  0.265754379596  1  1  1
0.622148635957  0.753168244163  0.264561058152  1  1  1
0.626615478739  0.403545832770  0.257207857714  1  1  1

H
0
38
0.567983247706  0.683430349812  0.377362796862  1  1  1
0.667457612574  0.720850818378  0.338109296688  1  1  1
0.486997279549  0.742878980200  0.362197827004  1  1  1
0.485618371255  0.641302720445  0.352127908056  1  1  1
0.530353285935  0.820509228521  0.323547557971  1  1  1
0.431126835291  0.808163150051  0.319745882548  1  1  1
0.690812725214  0.746338106282  0.386524311672  1  1  1
0.434016264595  0.547592314543  0.299412767794  1  1  1
0.536210684819  0.560348252861  0.307681982204  1  1  1
0.564950921807  0.686215669316  0.885454594074  1  1  1
0.664506735564  0.724102679989  0.923750318541  1  1  1
0.483287274975  0.745357199985  0.900134540532  1  1  1
0.482851368444  0.643463158529  0.910958329678  1  1  1
0.525448757632  0.825964525785  0.937645866334  1  1  1
0.426605189640  0.812035942448  0.941473673584  1  1  1
0.686825868214  0.749498569572  0.875176486843  1  1  1
0.432110509072  0.547239799046  0.962677812151  1  1  1
0.534604870740  0.560051002070  0.954038608031  1  1  1
0.089671828237  0.666477150144  0.374943109451  1  1  1
0.180578635888  0.717274257387  0.334147273460  1  1  1
0.001912168426  0.719048593568  0.363051114458  1  1  1
0.011450834525  0.617790229892  0.350469265055  1  1  1
0.036075137101  0.805025705503  0.326230482371  1  1  1
0.936993388173  0.792852517275  0.325376208289  1  1  1
0.220300366502  0.720902909238  0.382107757671  1  1  1
0.950347365937  0.531096182663  0.301750139340  1  1  1
0.050821579431  0.529616591802  0.298765684794  1  1  1
0.088998000859  0.664933140557  0.886437477643  1  1  1
0.180794249069  0.713121893377  0.927238479090  1  1  1
0.000951802286  0.717759013673  0.897732117639  1  1  1
0.010568225366  0.616916742970  0.911090851791  1  1  1
0.034107718611  0.805479731822  0.934010013777  1  1  1
0.935375117819  0.792379074711  0.935147308772  1  1  1
0.219883310604  0.717225505368  0.879251587501  1  1  1
0.950205482530  0.530232088888  0.959259510112  1  1  1
0.050662471931  0.528882780439  0.962105556082  1  1  1
0.707734251192  0.454296743705  0.362108396268  1  1  1
0.706339222937  0.452604775129  0.899928844549  1  1  1

O
0
20
0.665445972813  0.702358970462  0.369403822147  1  1  1
0.501755006364  0.681942263326  0.376228127373  1  1  1
0.478551773132  0.816236466416  0.342528349826  1  1  1
0.478389833836  0.590533474035  0.306413841313  1  1  1
0.662630495252  0.705179680929  0.892496298327  1  1  1
0.498636631944  0.684441597296  0.886941193009  1  1  1
0.473759024665  0.820599746181  0.918698038591  1  1  1
0.476609796598  0.590381542911  0.955784323393  1  1  1
0.184056372814  0.688090142103  0.362887184449  1  1  1
0.023845670027  0.659435527052  0.374843337428  1  1  1
0.986870408146  0.796276773496  0.346638132726  1  1  1
0.001401968992  0.566778467553  0.306798999138  1  1  1
0.183741415588  0.684253826020  0.898452607208  1  1  1
0.023124994526  0.658333760500  0.886464719441  1  1  1
0.984965782131  0.795941686291  0.913737935595  1  1  1
0.001203643264  0.565884731808  0.954223249995  1  1  1
0.625532654973  0.529232654561  0.318027402852  1  1  1
0.703095135167  0.420112581773  0.335592798566  1  1  1
0.622677590887  0.528106814114  0.942837822318  1  1  1
0.703104092036  0.420008210855  0.927082831582  1  1  1

C
0
2
0.652792750611  0.461237445436  0.306859128852  1  1  1
0.651918366124  0.461470850473  0.955235319802  1  1  1
