%BLOCK LATTICE_CART
   2.805799707700000   0.000000000000000   0.000000000000000
   1.402899853850000   2.429893824799152   0.000000000000000
   0.000000000000003   0.000000000000002  51.337645148214392
%END BLOCK LATTICE_CART
%BLOCK POSITIONS_FRAC
    Al   1.000000000000000   1.000000000000000   0.000013489000202
    Al   0.333333333300000   0.333333333300000   0.045454751212049
    Al   0.666666666700000   0.666666666700000   0.090908896026108
    Al   0.000000000000000   0.000000000000000   0.136350160529190
    Al   0.333333333300000   0.333333333300000   0.181817998397289
    Al   1.000000000000000   1.000000000000000   0.227272734234158
    Al   0.666666666700000   0.666666666700000   0.272727460737927
    Al   1.000000000000000   1.000000000000000   0.318195305231960
    Al   0.333333333300000   0.333333333300000   0.363636357994804
    Al   0.666666666700000   0.666666666700000   0.409077397416839
    Al   0.000000000000000   0.000000000000000   0.454545446854857
    Al   0.666666666700000   0.666666666700000   0.500013502383981
    Al   0.333333333300000   0.333333333300000   0.545454545433317
    Al   0.000000000000000   0.000000000000000   0.590895603503202
    Al   0.666666666700000   0.666666666700000   0.636363457607000
    Al   1.000000000000000   1.000000000000000   0.681818184465315
    Al   0.333333333300000   0.333333333300000   0.727272924777178
    Al   1.000000000000000   1.000000000000000   0.772740754844939
    Al   0.666666666700000   0.666666666700000   0.818182014666735
    Al   0.333333333300000   0.333333333300000   0.863636152433850
    Al   0.000000000000000   0.000000000000000   0.909077410704511
    Al   0.666666666700000   0.666666666700000   0.954545446812383
%END BLOCK POSITIONS_FRAC
%BLOCK SPECIES_POT
    Al al.lda.recpot                                                                          
%END BLOCK SPECIES_POT
%BLOCK ION_OPTIMIZATION
           0           0           1
           0           0           1
           0           0           1
           0           0           1
           0           0           1
           0           0           1
           0           0           1
           0           0           1
           0           0           1
           0           0           1
           0           0           1
           0           0           1
           0           0           1
           0           0           1
           0           0           1
           0           0           1
           0           0           1
           0           0           1
           0           0           1
           0           0           1
           0           0           1
           0           0           1
%END BLOCK ION_OPTIMIZATION
