%BLOCK LATTICE_CART
10.520164000000    0.000000000000    0.000000000000    
0.000000000000    10.520164000000    0.000000000000    
0.000000000000    0.000000000000    10.520164000000    
%END BLOCK LATTICE_CART
%BLOCK POSITIONS_FRAC
Li    0.000000000000    0.000000000000    0.000000000000
Li    0.500000000000    0.500000000000    0.500000000000
Mg    0.958043000000    0.356988000000    0.356988000000
Mg    0.169192000000    0.169192000000    0.169192000000
Mg    0.458043000000    0.143012000000    0.143012000000
Mg    0.669192000000    0.330808000000    0.330808000000
Mg    0.541957000000    0.856988000000    0.143012000000
Mg    0.143012000000    0.143012000000    0.458043000000
Mg    0.143012000000    0.541957000000    0.856988000000
Mg    0.330808000000    0.330808000000    0.669192000000
Mg    0.356988000000    0.958043000000    0.356988000000
Mg    0.856988000000    0.143012000000    0.541957000000
Mg    0.856988000000    0.541957000000    0.143012000000
Mg    0.356988000000    0.356988000000    0.958043000000
Mg    0.330808000000    0.669192000000    0.330808000000
Mg    0.143012000000    0.856988000000    0.541957000000
Mg    0.143012000000    0.458043000000    0.143012000000
Mg    0.541957000000    0.143012000000    0.856988000000
Mg    0.458043000000    0.856988000000    0.856988000000
Mg    0.669192000000    0.669192000000    0.669192000000
Mg    0.958043000000    0.643012000000    0.643012000000
Mg    0.169192000000    0.830808000000    0.830808000000
Mg    0.041957000000    0.356988000000    0.643012000000
Mg    0.643012000000    0.643012000000    0.958043000000
Mg    0.643012000000    0.041957000000    0.356988000000
Mg    0.830808000000    0.830808000000    0.169192000000
Mg    0.856988000000    0.458043000000    0.856988000000
Mg    0.356988000000    0.643012000000    0.041957000000
Mg    0.356988000000    0.041957000000    0.643012000000
Mg    0.856988000000    0.856988000000    0.458043000000
Mg    0.830808000000    0.169192000000    0.830808000000
Mg    0.643012000000    0.356988000000    0.041957000000
Mg    0.643012000000    0.958043000000    0.643012000000
Mg    0.041957000000    0.643012000000    0.356988000000
Al    0.723150500000    0.090716500000    0.090716500000
Al    0.223150500000    0.409283500000    0.409283500000
Al    0.276849500000    0.909283500000    0.090716500000
Al    0.409283500000    0.223150500000    0.409283500000
Al    0.909283500000    0.090716500000    0.276849500000
Al    0.090716500000    0.723150500000    0.090716500000
Al    0.090716500000    0.909283500000    0.276849500000
Al    0.090716500000    0.090716500000    0.723150500000
Al    0.090716500000    0.276849500000    0.909283500000
Al    0.909283500000    0.276849500000    0.090716500000
Al    0.409283500000    0.409283500000    0.223150500000
Al    0.276849500000    0.090716500000    0.909283500000
Al    0.223150500000    0.590716500000    0.590716500000
Al    0.723150500000    0.909283500000    0.909283500000
Al    0.776849500000    0.409283500000    0.590716500000
Al    0.909283500000    0.723150500000    0.909283500000
Al    0.409283500000    0.590716500000    0.776849500000
Al    0.590716500000    0.223150500000    0.590716500000
Al    0.590716500000    0.409283500000    0.776849500000
Al    0.590716500000    0.590716500000    0.223150500000
Al    0.590716500000    0.776849500000    0.409283500000
Al    0.409283500000    0.776849500000    0.590716500000
Al    0.909283500000    0.909283500000    0.723150500000
Al    0.776849500000    0.590716500000    0.409283500000
%END BLOCK POSITIONS_FRAC
%BLOCK SPECIES_POT
Li li.gga.recpot
Mg mg.gga.recpot
Al al.gga.recpot
%END BLOCK SPECIES_POT
