%BLOCK LATTICE_CART
   2.618011306518524   0.000000005882271   0.000000010492833
   0.000000005882271   2.618011306785489   0.000000001181345
   0.000000010492833   0.000000001181345   2.618011306785085
%END BLOCK LATTICE_CART
%BLOCK POSITIONS_FRAC
    Al   0.000000000000000   0.000000000000000   0.000000000000000
%END BLOCK POSITIONS_FRAC
%BLOCK SPECIES_POT
    Al al.lda.recpot                                                                          
%END BLOCK SPECIES_POT
