%BLOCK LATTICE_CART
   2.805799707700000   0.000000000000000   0.000000000000000
   1.402899853850000   2.429893824799152   0.000000000000000
   0.000000000000003   0.000000000000002  50.495082998135040
%END BLOCK LATTICE_CART
%BLOCK POSITIONS_FRAC
    Al   0.000000000000000   0.000000000000000   0.000109286235641
    Al   0.333333333300000   0.333333333300000   0.045437811358687
    Al   0.666666666700000   0.666666666700000   0.090733286258098
    Al   0.000000000000000   0.000000000000000   0.136093314225584
    Al   0.333333333300000   0.333333333300000   0.181648351622774
    Al   0.000000000000000   0.000000000000000   0.227180696949335
    Al   0.633333333300000   0.633333333300000   0.272907190792257
    Al   0.966666666700000   0.966666666700000   0.318418944705357
    Al   0.300000000000000   0.300000000000000   0.363719817914309
    Al   0.633333333300000   0.633333333300000   0.409017121804259
    Al   0.966666666700000   0.966666666700000   0.454545426183456
    Al   0.633333333300000   0.633333333300000   0.500073738622029
    Al   0.300000000000000   0.300000000000000   0.545371057751635
    Al   0.966666666700000   0.966666666700000   0.590671949025342
    Al   0.633333333300000   0.633333333300000   0.636183724043528
    Al   0.000000000000000   0.000000000000000   0.681910228694473
    Al   0.333333333300000   0.333333333300000   0.727442585785527
    Al   1.000000000000000   1.000000000000000   0.772997620276853
    Al   0.666666666700000   0.666666666700000   0.818357641601860
    Al   0.333333333300000   0.333333333300000   0.863653103904340
    Al   0.000000000000000   0.000000000000000   0.908981620796307
    Al   0.666666666700000   0.666666666700000   0.954545449307478
%END BLOCK POSITIONS_FRAC
%BLOCK SPECIES_POT
    Al al_HC.lda.recpot                                                                       
%END BLOCK SPECIES_POT
%BLOCK ION_OPTIMIZATION
           0           0           1
           0           0           1
           0           0           1
           0           0           1
           0           0           1
           0           0           1
           0           0           1
           0           0           1
           0           0           1
           0           0           1
           0           0           1
           0           0           1
           0           0           1
           0           0           1
           0           0           1
           0           0           1
           0           0           1
           0           0           1
           0           0           1
           0           0           1
           0           0           1
           0           0           1
%END BLOCK ION_OPTIMIZATION
