ATOMIC_SPECIES
Pt  Pt_mass  Pt_pesudopotential
O  O_mass  O_pesudopotential
H  H_mass  H_pesudopotential

NUMERICAL_ORBITAL
Pt_orbital
O_orbital
H_orbital

LATTICE_CONSTANT
5.303303697338

LATTICE_VECTORS
4.000000000000  0.000000000000  0.000000000000
0.000000000000  5.196152423000  0.000000000000
0.000000000000  0.000000000000  9.977244189610

ATOMIC_POSITIONS
Direct

Pt
0
96
0.000072924579  0.997975496633  1.003556874080  1  1  1
0.000069808796  0.330965874705  1.003643934416  1  1  1
0.000338986279  0.664415499732  1.003255866732  1  1  1
0.249413663870  0.997940483675  1.003523444041  1  1  1
0.250646471622  0.330574703313  1.003470056810  1  1  1
0.247551999218  0.664395999881  0.004250687973  1  1  1
0.499996546041  0.998128425552  1.003553711083  1  1  1
0.500358270557  0.330073624334  1.003150581307  1  1  1
0.499799220244  0.664154354455  1.000865177685  1  1  1
0.750704121660  0.997827243623  1.003494394103  1  1  1
0.749989305314  0.330592644272  1.003374165351  1  1  1
0.752484379443  0.664380541828  0.004352936873  1  1  1
0.125436940112  0.164503060722  1.003665248513  1  1  1
0.124957902521  0.497244838790  1.003505745220  1  1  1
0.124254123118  0.831356430941  1.003197642071  1  1  1
0.375040331700  0.164336005287  1.003556321596  1  1  1
0.374148159992  0.496421185420  0.004230413073  1  1  1
0.373863444384  0.832636062445  0.004413072621  1  1  1
0.625064810240  0.164180606520  1.003527161945  1  1  1
0.626106226388  0.496500497519  0.004331244404  1  1  1
0.625880876007  0.832344124827  0.004396519965  1  1  1
0.874901405979  0.164410439774  1.003650735020  1  1  1
0.875435492527  0.497274563800  1.003207165328  1  1  1
0.875901710216  0.831365079573  1.003242449368  1  1  1
0.000000000000  0.111111111000  0.085835882356  0  0  0
0.000000000000  0.444444444000  0.085835882356  0  0  0
0.000000000000  0.777777777001  0.085835882356  0  0  0
0.250000000000  0.111111111000  0.085835882356  0  0  0
0.250000000000  0.444444444000  0.085835882356  0  0  0
0.250000000000  0.777777777001  0.085835882356  0  0  0
0.500000000000  0.111111111000  0.085835882356  0  0  0
0.500000000000  0.444444444000  0.085835882356  0  0  0
0.500000000000  0.777777777001  0.085835882356  0  0  0
0.750000000000  0.111111111000  0.085835882356  0  0  0
0.750000000000  0.444444444000  0.085835882356  0  0  0
0.750000000000  0.777777777001  0.085835882356  0  0  0
0.125000000000  0.277777777001  0.085835882356  0  0  0
0.125000000000  0.611111111000  0.085835882356  0  0  0
0.125000000000  0.944444444000  0.085835882356  0  0  0
0.375000000000  0.277777777001  0.085835882356  0  0  0
0.375000000000  0.611111111000  0.085835882356  0  0  0
0.375000000000  0.944444444000  0.085835882356  0  0  0
0.625000000000  0.277777777001  0.085835882356  0  0  0
0.625000000000  0.611111111000  0.085835882356  0  0  0
0.625000000000  0.944444444000  0.085835882356  0  0  0
0.875000000000  0.277777777001  0.085835882356  0  0  0
0.875000000000  0.611111111000  0.085835882356  0  0  0
0.875000000000  0.944444444000  0.085835882356  0  0  0
0.125000000000  0.055555555000  0.167671764714  0  0  0
0.125000000000  0.388888889000  0.167671764714  0  0  0
0.125000000000  0.722222222001  0.167671764714  0  0  0
0.375000000000  0.055555555000  0.167671764714  0  0  0
0.375000000000  0.388888889000  0.167671764714  0  0  0
0.375000000000  0.722222222001  0.167671764714  0  0  0
0.625000000000  0.055555555000  0.167671764714  0  0  0
0.625000000000  0.388888889000  0.167671764714  0  0  0
0.625000000000  0.722222222001  0.167671764714  0  0  0
0.875000000000  0.055555555000  0.167671764714  0  0  0
0.875000000000  0.388888889000  0.167671764714  0  0  0
0.875000000000  0.722222222001  0.167671764714  0  0  0
0.000000000000  0.222222222001  0.167671764714  0  0  0
0.000000000000  0.555555555000  0.167671764714  0  0  0
0.000000000000  0.888888889000  0.167671764714  0  0  0
0.250000000000  0.222222222001  0.167671764714  0  0  0
0.250000000000  0.555555555000  0.167671764714  0  0  0
0.250000000000  0.888888889000  0.167671764714  0  0  0
0.500000000000  0.222222222001  0.167671764714  0  0  0
0.500000000000  0.555555555000  0.167671764714  0  0  0
0.500000000000  0.888888889000  0.167671764714  0  0  0
0.750000000000  0.222222222001  0.167671764714  0  0  0
0.750000000000  0.555555555000  0.167671764714  0  0  0
0.750000000000  0.888888889000  0.167671764714  0  0  0
0.000030202561  0.002366552098  0.249903328763  1  1  1
0.999833888740  0.335250251769  0.249868165383  1  1  1
0.000218797365  0.668767017202  0.250213974208  1  1  1
0.250133811608  0.002658335753  0.249993923176  1  1  1
0.249647314228  0.335219683385  0.249974389684  1  1  1
0.247550907438  0.668765421736  0.249226343539  1  1  1
0.499787143757  0.003131737885  0.250029464615  1  1  1
0.500038815174  0.334752639048  0.250144184958  1  1  1
0.499864830120  0.667985496227  0.252723704197  1  1  1
0.749783685056  0.002718864250  0.250006642012  1  1  1
0.750647819488  0.335481266065  0.250089476251  1  1  1
0.752281077036  0.669052614661  0.249081105429  1  1  1
0.125290854178  0.168698791732  0.249796780800  1  1  1
0.124219459328  0.501746550195  0.250218037950  1  1  1
0.124848442218  0.835926470748  0.250067948114  1  1  1
0.374939569945  0.169066201460  0.249951310541  1  1  1
0.373913992367  0.500460590172  0.249171002200  1  1  1
0.373980022895  0.836765772848  0.249076518616  1  1  1
0.624870804716  0.168996489725  0.249956960732  1  1  1
0.625956262822  0.500747915647  0.249071940295  1  1  1
0.625761044989  0.836736985937  0.249140713731  1  1  1
0.874734059782  0.168762897925  0.249833770066  1  1  1
0.875855999403  0.501801874426  0.250604414425  1  1  1
0.875125609425  0.836019538149  0.250025413630  1  1  1

O
0
8
0.820474838782  0.589141072073  0.886108264545  1  1  1
0.589670231855  0.556956440026  0.875805928635  1  1  1
0.496194013520  0.670676684120  0.925941051120  1  1  1
0.541772579306  0.380201178864  0.886091881844  1  1  1
0.820269363251  0.584761725194  0.367331987933  1  1  1
0.588662943504  0.560057392796  0.376980340380  1  1  1
0.496476245477  0.675662422880  0.327544318697  1  1  1
0.540198181788  0.384484853647  0.366786339949  1  1  1

H
0
20
0.197521530385  0.804437671300  0.387879068515  1  1  1
0.678308471111  0.567762717081  0.374282162771  1  1  1
0.845462925783  0.560264437760  0.335976712740  1  1  1
0.539619052614  0.614280892109  0.350047896938  1  1  1
0.567985806493  0.492944818769  0.372010571622  1  1  1
0.412464739336  0.682001572340  0.336467998141  1  1  1
0.196958554696  0.814638260303  0.361340261208  1  1  1
0.842330199524  0.649626496293  0.365787666038  1  1  1
0.551978962871  0.363534938345  0.333404868707  1  1  1
0.459281708661  0.364806884385  0.374710878756  1  1  1
0.193329222090  0.809606713951  0.863396512830  1  1  1
0.678878360703  0.566732440200  0.878589154673  1  1  1
0.846235135776  0.567667367354  0.917955007490  1  1  1
0.539158543802  0.610445774996  0.903256343216  1  1  1
0.571022610320  0.489555994137  0.880691422245  1  1  1
0.412553456216  0.678418660068  0.916828714763  1  1  1
0.191313004543  0.819795262070  0.889920999394  1  1  1
0.839787443887  0.654596953373  0.886228662015  1  1  1
0.555540855571  0.359895718292  0.919416162131  1  1  1
0.459254733628  0.362538339095  0.879595401960  1  1  1
