INPUT_PARAMETERS
#Parameters (1.General)
suffix			  Pt
calculation               nscf
ntype			  3
nbands			  1200
symmetry		  0
gamma_only                0

#Parameters (2.Iteration)
ecutwfc			  60
dr2	         	  1e-6
niter			  200

#Parameters (3.Basis)
basis_type		  lcao
ks_solver		  genelpa

#Parameters (4.Smearing)
smearing		  gaussian
sigma			  0.01

#Parameters (5.Mixing)
mixing_type		  pulay
mixing_beta		  0.1
mixing_ndim               20

start_charge              file
out_dos                   1
#out_charge                1
#out_potential             2
