ATOMIC_SPECIES
Pt  Pt_mass  Pt_pesudopotential
O  O_mass  O_pesudopotential
H  H_mass  H_pesudopotential

NUMERICAL_ORBITAL
Pt_orbital
O_orbital
H_orbital

LATTICE_CONSTANT
5.303303697338

LATTICE_VECTORS
4.000000000000  0.000000000000  0.000000000000
0.000000000000  5.196152423000  0.000000000000
0.000000000000  0.000000000000  9.977244189610

ATOMIC_POSITIONS
Direct

Pt
0
96
0.999786140351  0.998521059389  1.001590330568  1  1  1
0.999722693289  0.331100951997  1.001670346561  1  1  1
0.999527293562  0.664175935770  1.001503812530  1  1  1
0.249506137272  0.999041482949  1.001622072181  1  1  1
0.250112028600  0.330563532719  1.001514369932  1  1  1
0.246191157505  0.662876959348  1.000407665605  1  1  1
0.500707527048  0.998983959791  1.001633539975  1  1  1
0.500866028212  0.330660287659  1.001234346913  1  1  1
0.504080217680  0.663063249934  1.000655254428  1  1  1
0.750644132233  0.998418927393  1.001563271614  1  1  1
0.750410136759  0.330955403320  1.001426308778  1  1  1
0.750746548156  0.664386170857  1.001586259831  1  1  1
0.125065957248  0.165035039491  1.001528197024  1  1  1
0.124858454850  0.497060574724  1.001685399505  1  1  1
0.122747338191  0.832203324624  0.002024813119  1  1  1
0.375244461250  0.165187362380  1.001486124474  1  1  1
0.375202314423  0.496090748139  1.001725143781  1  1  1
0.375094710977  0.835842128396  1.001148351899  1  1  1
0.625344527614  0.164944540592  1.001495794120  1  1  1
0.625174884828  0.497117312746  1.001503302966  1  1  1
0.627575743333  0.832195807473  1.001949681306  1  1  1
0.875187827689  0.164437642223  1.001552503069  1  1  1
0.874945719996  0.497515931414  1.001266337937  1  1  1
0.875068716972  0.831308377324  1.001520653355  1  1  1
0.000000000000  0.111111111000  0.083835882356  0  0  0
0.000000000000  0.444444444000  0.083835882356  0  0  0
0.000000000000  0.777777777001  0.083835882356  0  0  0
0.250000000000  0.111111111000  0.083835882356  0  0  0
0.250000000000  0.444444444000  0.083835882356  0  0  0
0.250000000000  0.777777777001  0.083835882356  0  0  0
0.500000000000  0.111111111000  0.083835882356  0  0  0
0.500000000000  0.444444444000  0.083835882356  0  0  0
0.500000000000  0.777777777001  0.083835882356  0  0  0
0.750000000000  0.111111111000  0.083835882356  0  0  0
0.750000000000  0.444444444000  0.083835882356  0  0  0
0.750000000000  0.777777777001  0.083835882356  0  0  0
0.125000000000  0.277777777001  0.083835882356  0  0  0
0.125000000000  0.611111111000  0.083835882356  0  0  0
0.125000000000  0.944444444000  0.083835882356  0  0  0
0.375000000000  0.277777777001  0.083835882356  0  0  0
0.375000000000  0.611111111000  0.083835882356  0  0  0
0.375000000000  0.944444444000  0.083835882356  0  0  0
0.625000000000  0.277777777001  0.083835882356  0  0  0
0.625000000000  0.611111111000  0.083835882356  0  0  0
0.625000000000  0.944444444000  0.083835882356  0  0  0
0.875000000000  0.277777777001  0.083835882356  0  0  0
0.875000000000  0.611111111000  0.083835882356  0  0  0
0.875000000000  0.944444444000  0.083835882356  0  0  0
0.125000000000  0.055555555000  0.165671764714  0  0  0
0.125000000000  0.388888889000  0.165671764714  0  0  0
0.125000000000  0.722222222001  0.165671764714  0  0  0
0.375000000000  0.055555555000  0.165671764714  0  0  0
0.375000000000  0.388888889000  0.165671764714  0  0  0
0.375000000000  0.722222222001  0.165671764714  0  0  0
0.625000000000  0.055555555000  0.165671764714  0  0  0
0.625000000000  0.388888889000  0.165671764714  0  0  0
0.625000000000  0.722222222001  0.165671764714  0  0  0
0.875000000000  0.055555555000  0.165671764714  0  0  0
0.875000000000  0.388888889000  0.165671764714  0  0  0
0.875000000000  0.722222222001  0.165671764714  0  0  0
0.000000000000  0.222222222001  0.165671764714  0  0  0
0.000000000000  0.555555555000  0.165671764714  0  0  0
0.000000000000  0.888888889000  0.165671764714  0  0  0
0.250000000000  0.222222222001  0.165671764714  0  0  0
0.250000000000  0.555555555000  0.165671764714  0  0  0
0.250000000000  0.888888889000  0.165671764714  0  0  0
0.500000000000  0.222222222001  0.165671764714  0  0  0
0.500000000000  0.555555555000  0.165671764714  0  0  0
0.500000000000  0.888888889000  0.165671764714  0  0  0
0.750000000000  0.222222222001  0.165671764714  0  0  0
0.750000000000  0.555555555000  0.165671764714  0  0  0
0.750000000000  0.888888889000  0.165671764714  0  0  0
0.999896287703  0.003254232453  0.247969011128  1  1  1
0.999670506759  0.335939304416  0.247918641571  1  1  1
0.999584797752  0.669220681393  0.247883159435  1  1  1
0.249547314126  0.003421970282  0.247837563787  1  1  1
0.250044698806  0.335647074755  0.248072648929  1  1  1
0.247312594833  0.667753921239  0.249576355506  1  1  1
0.500531033999  0.003369864482  0.247808711787  1  1  1
0.500781243005  0.335538801980  0.248493867767  1  1  1
0.503201003807  0.667948382429  0.249226463072  1  1  1
0.750348391283  0.003278353166  0.247964852248  1  1  1
0.750348398777  0.335988732529  0.248130177669  1  1  1
0.750436265823  0.669638510310  0.247754059926  1  1  1
0.125057470343  0.169622364707  0.247977158833  1  1  1
0.124658945672  0.502120445853  0.247821839410  1  1  1
0.123230272083  0.836662858405  0.247513419456  1  1  1
0.375223246603  0.170001766411  0.248071881369  1  1  1
0.375067905632  0.500822155573  0.247676666403  1  1  1
0.375057157470  0.839618992594  0.249071668961  1  1  1
0.625050894806  0.169637934704  0.247988623121  1  1  1
0.625420957102  0.502109094006  0.247836014047  1  1  1
0.626927112835  0.836822498009  0.247600672364  1  1  1
0.875118706168  0.169385835436  0.247891097507  1  1  1
0.874928028319  0.502449130351  0.248449287518  1  1  1
0.875135486430  0.836098334347  0.248066422274  1  1  1

O
0
8
0.782036201184  0.598962829872  0.886548038908  1  1  1
0.580840551587  0.543869261042  0.855560882758  1  1  1
0.391919009974  0.627246402259  0.881915780768  1  1  1
0.529256696568  0.384499624371  0.884997322124  1  1  1
0.780459835687  0.598915864451  0.361460150446  1  1  1
0.581354445742  0.537768358828  0.392718324264  1  1  1
0.384696404175  0.612593139606  0.367906844299  1  1  1
0.537219130648  0.376715747713  0.364682637598  1  1  1

H
0
20
0.374614442931  0.726796385829  0.278853467610  1  1  1
0.660954655224  0.563607322538  0.378445097367  1  1  1
0.810919281395  0.561591686363  0.334494890151  1  1  1
0.507728417003  0.575341570300  0.382082800214  1  1  1
0.565802924484  0.470089621473  0.380817969007  1  1  1
0.361734514431  0.675152660180  0.376468601381  1  1  1
0.368318166756  0.607372863472  0.333209626917  1  1  1
0.774740930309  0.660176749794  0.346825244469  1  1  1
0.548594089518  0.367647880497  0.329577584103  1  1  1
0.454446642141  0.358428899462  0.370308181350  1  1  1
0.374228676475  0.723003934224  0.972221619460  1  1  1
0.661739026526  0.568040297446  0.869411684627  1  1  1
0.796536539346  0.579597159238  0.920143755375  1  1  1
0.509796794012  0.583969484748  0.866666223243  1  1  1
0.562750726811  0.477014134518  0.867917183279  1  1  1
0.378081301134  0.692614231435  0.876412615765  1  1  1
0.376060844090  0.618181588934  0.916404036915  1  1  1
0.794785030800  0.665422793370  0.887462480993  1  1  1
0.552705900857  0.373395154956  0.918853734748  1  1  1
0.443232275453  0.373059580748  0.884961857985  1  1  1
