ATOMIC_SPECIES
Al 26.981539 al.lda.lps

LATTICE_CONSTANT
7.50241114482312  // add lattice constant

LATTICE_VECTORS
0.707106781187    0.000000000000    0.000000000000    
0.353553390593    0.612372435696    0.000000000000    
0.000000000000    0.000000000000    11.547005383792515

ATOMIC_POSITIONS
Direct

Al
0.0
20
    1.6666677298E-11  1.6666677298E-11  1.4983070061E-04 1 1 1
    3.3333333335E-01  3.3333333335E-01  4.9894576529E-02 1 1 1
    6.6666666668E-01  6.6666666668E-01  1.0000168268E-01 1 1 1
    1.6666677298E-11  1.6666677298E-11  1.4994169490E-01 1 1 1
    3.3333333335E-01  3.3333333335E-01  2.0000000000E-01 1 1 1
    6.6666666668E-01  6.6666666668E-01  2.5005830510E-01 1 1 1
    1.6666677298E-11  1.6666677298E-11  2.9999831732E-01 1 1 1
    3.3333333335E-01  3.3333333335E-01  3.5010542347E-01 1 1 1
    6.6666666668E-01  6.6666666668E-01  3.9985016930E-01 1 1 1
    1.6666677298E-11  1.6666677298E-11  4.5000000000E-01 1 1 1
    6.6666666668E-01  6.6666666668E-01  5.0014983070E-01 1 1 1
    3.3333333335E-01  3.3333333335E-01  5.4989457653E-01 1 1 1
    1.6666677298E-11  1.6666677298E-11  6.0000168268E-01 1 1 1
    6.6666666668E-01  6.6666666668E-01  6.4994169490E-01 1 1 1
    3.3333333335E-01  3.3333333335E-01  7.0000000000E-01 1 1 1
    1.6666677298E-11  1.6666677298E-11  7.5005830510E-01 1 1 1
    6.6666666668E-01  6.6666666668E-01  7.9999831732E-01 1 1 1
    3.3333333335E-01  3.3333333335E-01  8.5010542347E-01 1 1 1
    1.6666677298E-11  1.6666677298E-11  8.9985016930E-01 1 1 1
    6.6666666668E-01  6.6666666668E-01  9.5000000000E-01 1 1 1
