%BLOCK LATTICE_CART
9.638852000000    0.000000000000    0.000000000000    
0.000000000000    9.638852000000    0.000000000000    
0.000000000000    0.000000000000    9.638852000000    
%END BLOCK LATTICE_CART
%BLOCK POSITIONS_FRAC
Li    0.396553000000    0.896553000000    0.896553000000
Li    0.103447000000    0.103447000000    0.396553000000
Li    0.103447000000    0.896553000000    0.603447000000
Li    0.146553000000    0.146553000000    0.853447000000
Li    0.353447000000    0.353447000000    0.853447000000
Li    0.396553000000    0.103447000000    0.103447000000
Li    0.146553000000    0.353447000000    0.646553000000
Li    0.353447000000    0.146553000000    0.646553000000
Li    0.396553000000    0.396553000000    0.396553000000
Li    0.103447000000    0.603447000000    0.896553000000
Li    0.103447000000    0.396553000000    0.103447000000
Li    0.146553000000    0.646553000000    0.353447000000
Li    0.353447000000    0.853447000000    0.353447000000
Li    0.396553000000    0.603447000000    0.603447000000
Li    0.146553000000    0.853447000000    0.146553000000
Li    0.353447000000    0.646553000000    0.146553000000
Li    0.896553000000    0.896553000000    0.396553000000
Li    0.603447000000    0.103447000000    0.896553000000
Li    0.603447000000    0.896553000000    0.103447000000
Li    0.646553000000    0.146553000000    0.353447000000
Li    0.853447000000    0.353447000000    0.353447000000
Li    0.896553000000    0.103447000000    0.603447000000
Li    0.646553000000    0.353447000000    0.146553000000
Li    0.853447000000    0.146553000000    0.146553000000
Li    0.896553000000    0.396553000000    0.896553000000
Li    0.603447000000    0.603447000000    0.396553000000
Li    0.603447000000    0.396553000000    0.603447000000
Li    0.646553000000    0.646553000000    0.853447000000
Li    0.853447000000    0.853447000000    0.853447000000
Li    0.896553000000    0.603447000000    0.103447000000
Li    0.646553000000    0.853447000000    0.646553000000
Li    0.853447000000    0.646553000000    0.646553000000
Al    0.125000000000    0.625000000000    0.625000000000
Al    0.375000000000    0.875000000000    0.625000000000
Al    0.375000000000    0.625000000000    0.875000000000
Al    0.125000000000    0.875000000000    0.875000000000
Al    0.125000000000    0.125000000000    0.125000000000
Al    0.375000000000    0.375000000000    0.125000000000
Al    0.375000000000    0.125000000000    0.375000000000
Al    0.125000000000    0.375000000000    0.375000000000
Al    0.625000000000    0.625000000000    0.125000000000
Al    0.875000000000    0.875000000000    0.125000000000
Al    0.875000000000    0.625000000000    0.375000000000
Al    0.625000000000    0.875000000000    0.375000000000
Al    0.625000000000    0.125000000000    0.625000000000
Al    0.875000000000    0.375000000000    0.625000000000
Al    0.875000000000    0.125000000000    0.875000000000
Al    0.625000000000    0.375000000000    0.875000000000
%END BLOCK POSITIONS_FRAC
%BLOCK SPECIES_POT
Li li.gga.recpot
Al al.gga.recpot
%END BLOCK SPECIES_POT
