ATOMIC_SPECIES
N 14 /home/mhchen_pkuhpc/mhchen_cls/lustre2/5_liurenxi/03a01_abacus-lcao-scan/pp/SG15_ONCV_v1.0_upf/N_ONCV_PBE-1.0.upf
C 12 /home/mhchen_pkuhpc/mhchen_cls/lustre2/5_liurenxi/03a01_abacus-lcao-scan/pp/SG15_ONCV_v1.0_upf/C_ONCV_PBE-1.0.upf
H 1 /home/mhchen_pkuhpc/mhchen_cls/lustre2/5_liurenxi/03a01_abacus-lcao-scan/pp/SG15_ONCV_v1.0_upf/H_ONCV_PBE-1.0.upf
O 16 /home/mhchen_pkuhpc/mhchen_cls/lustre2/5_liurenxi/03a01_abacus-lcao-scan/pp/SG15_ONCV_v1.0_upf/O_ONCV_PBE-1.0.upf

LATTICE_CONSTANT
1.8897161646321

LATTICE_VECTORS
20 0 0
0 20 0
0 0 20

NUMERICAL_ORBITAL
/home/mhchen_pkuhpc/mhchen_cls/lustre2/5_liurenxi/03a01_abacus-lcao-scan/orb/Orb_DZP_E100_Full/N/N_gga_10au_100Ry_2s2p1d.orb
/home/mhchen_pkuhpc/mhchen_cls/lustre2/5_liurenxi/03a01_abacus-lcao-scan/orb/Orb_DZP_E100_Full/C/C_gga_10au_100Ry_2s2p1d.orb
/home/mhchen_pkuhpc/mhchen_cls/lustre2/5_liurenxi/03a01_abacus-lcao-scan/orb/Orb_DZP_E100_Full/H/H_gga_10au_100Ry_2s1p.orb
/home/mhchen_pkuhpc/mhchen_cls/lustre2/5_liurenxi/03a01_abacus-lcao-scan/orb/Orb_DZP_E100_Full/O/O_gga_10au_100Ry_2s2p1d.orb

ATOMIC_POSITIONS
Cartesian    # Cartesian(Unit is LATTICE_CONSTANT)
N
0.0
7
0.279301 2.406839 -0.605752 m 0 0 0 
-1.597712 1.717988 0.428754 m 0 0 0 
-1.418709 -0.167777 2.810144 m 0 0 0 
0.885763 -0.070076 2.491949 m 0 0 0 
1.940978 1.224202 0.740220 m 0 0 0 
1.275461 -0.647899 -1.977910 m 0 0 0 
-0.995692 -0.638387 -1.672042 m 0 0 0 
C
0.0
10
-1.084857 2.445746 -0.551161 m 0 0 0 
-0.489725 1.171436 1.030191 m 0 0 0 
-0.346137 0.291471 2.117234 m 0 0 0 
1.935235 0.407288 1.796802 m 0 0 0 
0.695219 1.577986 0.406398 m 0 0 0 
1.413053 -1.553685 -0.955067 m 0 0 0 
0.357598 -2.023950 -0.253057 m 0 0 0 
0.482129 -3.017949 0.852122 m 0 0 0 
-0.968471 -1.529811 -0.593979 m 0 0 0 
0.068470 -0.119176 -2.376376 m 0 0 0 
H
0.0
11
-1.659440 3.023029 -1.256090 m 0 0 0 
-1.238875 -0.959480 3.404758 m 0 0 0 
-2.291873 -0.178822 2.307362 m 0 0 0 
2.906033 0.078841 2.145818 m 0 0 0 
0.861007 2.829804 -1.310450 m 0 0 0 
2.425877 -1.867078 -0.746878 m 0 0 0 
0.175770 -2.575607 1.798628 m 0 0 0 
-0.160169 -3.877041 0.663950 m 0 0 0 
1.511244 -3.357277 0.951366 m 0 0 0 
-1.901406 -0.250172 -1.898576 m 0 0 0 
2.085329 -0.276018 -2.445458 m 0 0 0 
O
0.0
2
-2.002928 -1.839696 -0.019945 m 0 0 0 
-0.039788 0.722701 -3.253108 m 0 0 0 
