Transformation
0.529176965773
32.125341805842  0.000000000000  0.000000000000
0.000000000000  34.015067794421  0.000000000000
0.000000000000  0.000000000000  202.801470023138
C  
1000  
Direct
0.625544000000  0.529632000000  0.008103000000  
0.641303000000  0.476472000000  0.019025000000  
0.182197000000  0.476279000000  0.018917000000  
0.627941000000  0.524055000000  0.030937000000  
0.633429000000  0.509210000000  0.045905000000  
0.179755000000  0.447283000000  0.052100000000  
0.179749000000  0.446855000000  0.068134000000  
0.633083000000  0.510256000000  0.074317000000  
0.627757000000  0.524500000000  0.088902000000  
0.641284000000  0.476588000000  0.100093000000  
0.182448000000  0.477857000000  0.100129000000  
0.628063000000  0.523758000000  0.111105000000  
0.633287000000  0.509642000000  0.125800000000  
0.179747000000  0.446599000000  0.131973000000  
0.179748000000  0.446711000000  0.148152000000  
0.633329000000  0.509514000000  0.154365000000  
0.627781000000  0.524442000000  0.169341000000  
0.641197000000  0.477139000000  0.181187000000  
0.182048000000  0.475305000000  0.181253000000  
0.625517000000  0.529693000000  0.192227000000  
0.541258000000  0.626282000000  0.007362000000  
0.589492000000  0.585324000000  0.013509000000  
0.592143000000  0.582286000000  0.026987000000  
0.545667000000  0.623410000000  0.034766000000  
0.558483000000  0.614212000000  0.049162000000  
0.605952000000  0.564388000000  0.053375000000  
0.605814000000  0.564587000000  0.066984000000  
0.557675000000  0.614832000000  0.071305000000  
0.544866000000  0.623943000000  0.085947000000  
0.591624000000  0.582889000000  0.093259000000  
0.591973000000  0.582484000000  0.106797000000  
0.545396000000  0.623591000000  0.114198000000  
0.558131000000  0.614483000000  0.128845000000  
0.606069000000  0.564219000000  0.133153000000  
0.605863000000  0.564516000000  0.146871000000  
0.558020000000  0.614568000000  0.151099000000  
0.544901000000  0.623920000000  0.165587000000  
0.591601000000  0.582916000000  0.173314000000  
0.589316000000  0.585521000000  0.186857000000  
0.541015000000  0.626435000000  0.193080000000  
0.412425000000  0.663582000000  0.007301000000  
0.480321000000  0.653800000000  0.013834000000  
0.481063000000  0.653582000000  0.028853000000  
0.411249000000  0.663583000000  0.035055000000  
0.397719000000  0.663181000000  0.049319000000  
0.449538000000  0.660660000000  0.060220000000  
0.514588000000  0.640891000000  0.060278000000  
0.396955000000  0.663136000000  0.071259000000  
0.410249000000  0.663579000000  0.085940000000  
0.480459000000  0.653759000000  0.092148000000  
0.481028000000  0.653592000000  0.108139000000  
0.411238000000  0.663583000000  0.114478000000  
0.398152000000  0.663206000000  0.128994000000  
0.449680000000  0.660638000000  0.139959000000  
0.514404000000  0.640977000000  0.140007000000  
0.396552000000  0.663112000000  0.150888000000  
0.409170000000  0.663570000000  0.165340000000  
0.479722000000  0.653974000000  0.171573000000  
0.479496000000  0.654039000000  0.186637000000  
0.411930000000  0.663583000000  0.193151000000  
0.282678000000  0.626539000000  0.006879000000  
0.345186000000  0.654368000000  0.013501000000  
0.342719000000  0.653656000000  0.027553000000  
0.277638000000  0.623261000000  0.033455000000  
0.273369000000  0.620335000000  0.046993000000  
0.328647000000  0.649040000000  0.053741000000  
0.328844000000  0.649112000000  0.066803000000  
0.273716000000  0.620578000000  0.073552000000  
0.278332000000  0.623723000000  0.086969000000  
0.343558000000  0.653901000000  0.093095000000  
0.343626000000  0.653921000000  0.107312000000  
0.278572000000  0.623882000000  0.113481000000  
0.274427000000  0.621073000000  0.126716000000  
0.329440000000  0.649326000000  0.133390000000  
0.328600000000  0.649023000000  0.146291000000  
0.271708000000  0.619158000000  0.153095000000  
0.275841000000  0.622046000000  0.166652000000  
0.341034000000  0.653153000000  0.172693000000  
0.343404000000  0.653857000000  0.186781000000  
0.281961000000  0.626084000000  0.193272000000  
0.197203000000  0.527860000000  0.007910000000  
0.233201000000  0.584377000000  0.013226000000  
0.231657000000  0.582601000000  0.026455000000  
0.196064000000  0.525198000000  0.030761000000  
0.191302000000  0.512770000000  0.045809000000  
0.222788000000  0.571596000000  0.053153000000  
0.222803000000  0.571615000000  0.067430000000  
0.191752000000  0.514053000000  0.074600000000  
0.196237000000  0.525608000000  0.089213000000  
0.231868000000  0.582846000000  0.093706000000  
0.231918000000  0.582904000000  0.106765000000  
0.196132000000  0.525360000000  0.111224000000  
0.191521000000  0.513397000000  0.125640000000  
0.222809000000  0.571624000000  0.132917000000  
0.222315000000  0.570967000000  0.146995000000  
0.190929000000  0.511687000000  0.154326000000  
0.195578000000  0.524030000000  0.169432000000  
0.230343000000  0.581059000000  0.173622000000  
0.232418000000  0.583481000000  0.186880000000  
0.197092000000  0.527605000000  0.192186000000  
0.197985000000  0.359257000000  0.008103000000  
0.182227000000  0.412417000000  0.019025000000  
0.641333000000  0.412610000000  0.018917000000  
0.195589000000  0.364834000000  0.030937000000  
0.190100000000  0.379679000000  0.045905000000  
0.643775000000  0.441606000000  0.052100000000  
0.643780000000  0.442034000000  0.068134000000  
0.190446000000  0.378632000000  0.074317000000  
0.195773000000  0.364389000000  0.088902000000  
0.182245000000  0.412300000000  0.100093000000  
0.641081000000  0.411032000000  0.100129000000  
0.195466000000  0.365131000000  0.111105000000  
0.190243000000  0.379247000000  0.125800000000  
0.643783000000  0.442290000000  0.131973000000  
0.643782000000  0.442178000000  0.148152000000  
0.190200000000  0.379375000000  0.154365000000  
0.195749000000  0.364447000000  0.169341000000  
0.182332000000  0.411750000000  0.181187000000  
0.641482000000  0.413584000000  0.181253000000  
0.198012000000  0.359196000000  0.192227000000  
0.282272000000  0.262607000000  0.007362000000  
0.234037000000  0.303565000000  0.013509000000  
0.231387000000  0.306603000000  0.026987000000  
0.277862000000  0.265479000000  0.034766000000  
0.265047000000  0.274677000000  0.049162000000  
0.217577000000  0.324501000000  0.053375000000  
0.217715000000  0.324302000000  0.066984000000  
0.265854000000  0.274057000000  0.071305000000  
0.278664000000  0.264946000000  0.085947000000  
0.231905000000  0.306000000000  0.093259000000  
0.231556000000  0.306405000000  0.106797000000  
0.278133000000  0.265298000000  0.114198000000  
0.265399000000  0.274406000000  0.128845000000  
0.217460000000  0.324670000000  0.133153000000  
0.217666000000  0.324373000000  0.146871000000  
0.265510000000  0.274321000000  0.151099000000  
0.278629000000  0.264969000000  0.165587000000  
0.231929000000  0.305973000000  0.173314000000  
0.234213000000  0.303368000000  0.186857000000  
0.282514000000  0.262454000000  0.193080000000  
0.411104000000  0.225307000000  0.007301000000  
0.343209000000  0.235089000000  0.013834000000  
0.342466000000  0.235307000000  0.028853000000  
0.412281000000  0.225306000000  0.035055000000  
0.425810000000  0.225708000000  0.049319000000  
0.373991000000  0.228229000000  0.060220000000  
0.308942000000  0.247998000000  0.060278000000  
0.426574000000  0.225752000000  0.071259000000  
0.413280000000  0.225310000000  0.085940000000  
0.343071000000  0.235130000000  0.092148000000  
0.342501000000  0.235297000000  0.108139000000  
0.412291000000  0.225306000000  0.114478000000  
0.425377000000  0.225683000000  0.128994000000  
0.373849000000  0.228251000000  0.139959000000  
0.309125000000  0.247912000000  0.140007000000  
0.426977000000  0.225777000000  0.150888000000  
0.414359000000  0.225319000000  0.165340000000  
0.343807000000  0.234915000000  0.171573000000  
0.344033000000  0.234850000000  0.186637000000  
0.411600000000  0.225306000000  0.193151000000  
0.540851000000  0.262349000000  0.006879000000  
0.478343000000  0.234521000000  0.013501000000  
0.480811000000  0.235233000000  0.027553000000  
0.545891000000  0.265628000000  0.033455000000  
0.550161000000  0.268554000000  0.046993000000  
0.494883000000  0.239849000000  0.053741000000  
0.494685000000  0.239777000000  0.066803000000  
0.549814000000  0.268311000000  0.073552000000  
0.545198000000  0.265166000000  0.086969000000  
0.479971000000  0.234988000000  0.093095000000  
0.479903000000  0.234968000000  0.107312000000  
0.544958000000  0.265007000000  0.113481000000  
0.549103000000  0.267816000000  0.126716000000  
0.494089000000  0.239562000000  0.133390000000  
0.494930000000  0.239866000000  0.146291000000  
0.551822000000  0.269731000000  0.153095000000  
0.547688000000  0.266843000000  0.166652000000  
0.482496000000  0.235736000000  0.172693000000  
0.480126000000  0.235032000000  0.186781000000  
0.541569000000  0.262805000000  0.193272000000  
0.626327000000  0.361029000000  0.007910000000  
0.590328000000  0.304512000000  0.013226000000  
0.591873000000  0.306288000000  0.026455000000  
0.627465000000  0.363691000000  0.030761000000  
0.632227000000  0.376118000000  0.045809000000  
0.600741000000  0.317293000000  0.053153000000  
0.600726000000  0.317273000000  0.067430000000  
0.631777000000  0.374836000000  0.074600000000  
0.627292000000  0.363280000000  0.089213000000  
0.591661000000  0.306043000000  0.093706000000  
0.591611000000  0.305985000000  0.106765000000  
0.627397000000  0.363529000000  0.111224000000  
0.632009000000  0.375492000000  0.125640000000  
0.600720000000  0.317265000000  0.132917000000  
0.601214000000  0.317922000000  0.146995000000  
0.632601000000  0.377202000000  0.154326000000  
0.627951000000  0.364859000000  0.169432000000  
0.593186000000  0.307830000000  0.173622000000  
0.591111000000  0.305407000000  0.186880000000  
0.626437000000  0.361284000000  0.192186000000  
0.625544000000  0.529632000000  0.208103000000  
0.641303000000  0.476472000000  0.219025000000  
0.182197000000  0.476279000000  0.218917000000  
0.627941000000  0.524055000000  0.230937000000  
0.633429000000  0.509210000000  0.245905000000  
0.179755000000  0.447283000000  0.252100000000  
0.179749000000  0.446855000000  0.268134000000  
0.633083000000  0.510256000000  0.274317000000  
0.627757000000  0.524500000000  0.288902000000  
0.641284000000  0.476588000000  0.300093000000  
0.182448000000  0.477857000000  0.300129000000  
0.628063000000  0.523758000000  0.311105000000  
0.633287000000  0.509642000000  0.325800000000  
0.179747000000  0.446599000000  0.331973000000  
0.179748000000  0.446711000000  0.348152000000  
0.633329000000  0.509514000000  0.354365000000  
0.627781000000  0.524442000000  0.369341000000  
0.641197000000  0.477139000000  0.381187000000  
0.182048000000  0.475305000000  0.381253000000  
0.625517000000  0.529693000000  0.392227000000  
0.541258000000  0.626282000000  0.207362000000  
0.589492000000  0.585324000000  0.213509000000  
0.592143000000  0.582286000000  0.226987000000  
0.545667000000  0.623410000000  0.234766000000  
0.558483000000  0.614212000000  0.249162000000  
0.605952000000  0.564388000000  0.253375000000  
0.605814000000  0.564587000000  0.266984000000  
0.557675000000  0.614832000000  0.271305000000  
0.544866000000  0.623943000000  0.285947000000  
0.591624000000  0.582889000000  0.293259000000  
0.591973000000  0.582484000000  0.306797000000  
0.545396000000  0.623591000000  0.314198000000  
0.558131000000  0.614483000000  0.328845000000  
0.606069000000  0.564219000000  0.333153000000  
0.605863000000  0.564516000000  0.346871000000  
0.558020000000  0.614568000000  0.351099000000  
0.544901000000  0.623920000000  0.365587000000  
0.591601000000  0.582916000000  0.373314000000  
0.589316000000  0.585521000000  0.386857000000  
0.541015000000  0.626435000000  0.393080000000  
0.412425000000  0.663582000000  0.207301000000  
0.480321000000  0.653800000000  0.213834000000  
0.481063000000  0.653582000000  0.228853000000  
0.411249000000  0.663583000000  0.235055000000  
0.397719000000  0.663181000000  0.249319000000  
0.449538000000  0.660660000000  0.260220000000  
0.514588000000  0.640891000000  0.260278000000  
0.396955000000  0.663136000000  0.271259000000  
0.410249000000  0.663579000000  0.285940000000  
0.480459000000  0.653759000000  0.292148000000  
0.481028000000  0.653592000000  0.308139000000  
0.411238000000  0.663583000000  0.314479000000  
0.398152000000  0.663206000000  0.328994000000  
0.449680000000  0.660638000000  0.339959000000  
0.514404000000  0.640977000000  0.340007000000  
0.396552000000  0.663112000000  0.350888000000  
0.409170000000  0.663570000000  0.365340000000  
0.479722000000  0.653974000000  0.371573000000  
0.479496000000  0.654039000000  0.386637000000  
0.411930000000  0.663583000000  0.393151000000  
0.282678000000  0.626539000000  0.206879000000  
0.345186000000  0.654368000000  0.213501000000  
0.342719000000  0.653656000000  0.227553000000  
0.277638000000  0.623261000000  0.233455000000  
0.273369000000  0.620335000000  0.246993000000  
0.328647000000  0.649040000000  0.253741000000  
0.328844000000  0.649112000000  0.266803000000  
0.273716000000  0.620578000000  0.273552000000  
0.278332000000  0.623723000000  0.286969000000  
0.343558000000  0.653901000000  0.293095000000  
0.343626000000  0.653921000000  0.307312000000  
0.278572000000  0.623882000000  0.313481000000  
0.274427000000  0.621073000000  0.326716000000  
0.329440000000  0.649326000000  0.333390000000  
0.328600000000  0.649023000000  0.346290000000  
0.271708000000  0.619158000000  0.353095000000  
0.275841000000  0.622046000000  0.366652000000  
0.341034000000  0.653153000000  0.372693000000  
0.343404000000  0.653857000000  0.386781000000  
0.281961000000  0.626084000000  0.393272000000  
0.197203000000  0.527860000000  0.207910000000  
0.233201000000  0.584377000000  0.213226000000  
0.231657000000  0.582601000000  0.226455000000  
0.196064000000  0.525198000000  0.230761000000  
0.191302000000  0.512770000000  0.245809000000  
0.222788000000  0.571596000000  0.253153000000  
0.222803000000  0.571615000000  0.267430000000  
0.191752000000  0.514053000000  0.274600000000  
0.196237000000  0.525608000000  0.289213000000  
0.231868000000  0.582846000000  0.293706000000  
0.231918000000  0.582904000000  0.306765000000  
0.196132000000  0.525360000000  0.311224000000  
0.191521000000  0.513397000000  0.325640000000  
0.222809000000  0.571624000000  0.332917000000  
0.222315000000  0.570967000000  0.346995000000  
0.190929000000  0.511687000000  0.354326000000  
0.195578000000  0.524030000000  0.369432000000  
0.230343000000  0.581059000000  0.373622000000  
0.232418000000  0.583481000000  0.386880000000  
0.197092000000  0.527605000000  0.392186000000  
0.197985000000  0.359257000000  0.208103000000  
0.182227000000  0.412417000000  0.219025000000  
0.641333000000  0.412610000000  0.218917000000  
0.195589000000  0.364834000000  0.230937000000  
0.190100000000  0.379679000000  0.245905000000  
0.643775000000  0.441606000000  0.252100000000  
0.643780000000  0.442034000000  0.268134000000  
0.190446000000  0.378632000000  0.274317000000  
0.195773000000  0.364389000000  0.288902000000  
0.182245000000  0.412300000000  0.300093000000  
0.641081000000  0.411032000000  0.300129000000  
0.195466000000  0.365131000000  0.311105000000  
0.190243000000  0.379247000000  0.325800000000  
0.643783000000  0.442290000000  0.331973000000  
0.643782000000  0.442178000000  0.348152000000  
0.190200000000  0.379375000000  0.354365000000  
0.195749000000  0.364447000000  0.369341000000  
0.182332000000  0.411750000000  0.381187000000  
0.641482000000  0.413584000000  0.381253000000  
0.198012000000  0.359196000000  0.392227000000  
0.282272000000  0.262607000000  0.207362000000  
0.234037000000  0.303565000000  0.213509000000  
0.231387000000  0.306603000000  0.226987000000  
0.277862000000  0.265479000000  0.234766000000  
0.265047000000  0.274677000000  0.249162000000  
0.217577000000  0.324501000000  0.253375000000  
0.217715000000  0.324302000000  0.266984000000  
0.265854000000  0.274057000000  0.271305000000  
0.278664000000  0.264946000000  0.285947000000  
0.231905000000  0.306000000000  0.293259000000  
0.231556000000  0.306405000000  0.306797000000  
0.278133000000  0.265298000000  0.314198000000  
0.265399000000  0.274406000000  0.328845000000  
0.217460000000  0.324670000000  0.333153000000  
0.217666000000  0.324373000000  0.346871000000  
0.265510000000  0.274321000000  0.351099000000  
0.278629000000  0.264969000000  0.365587000000  
0.231929000000  0.305973000000  0.373314000000  
0.234213000000  0.303368000000  0.386857000000  
0.282514000000  0.262454000000  0.393080000000  
0.411104000000  0.225307000000  0.207301000000  
0.343209000000  0.235089000000  0.213834000000  
0.342466000000  0.235307000000  0.228853000000  
0.412281000000  0.225306000000  0.235055000000  
0.425810000000  0.225708000000  0.249319000000  
0.373991000000  0.228229000000  0.260220000000  
0.308942000000  0.247998000000  0.260278000000  
0.426574000000  0.225752000000  0.271259000000  
0.413280000000  0.225310000000  0.285940000000  
0.343071000000  0.235130000000  0.292148000000  
0.342501000000  0.235297000000  0.308139000000  
0.412291000000  0.225306000000  0.314479000000  
0.425377000000  0.225683000000  0.328994000000  
0.373849000000  0.228251000000  0.339959000000  
0.309125000000  0.247912000000  0.340007000000  
0.426977000000  0.225777000000  0.350888000000  
0.414359000000  0.225319000000  0.365340000000  
0.343807000000  0.234915000000  0.371573000000  
0.344033000000  0.234850000000  0.386637000000  
0.411600000000  0.225306000000  0.393151000000  
0.540851000000  0.262349000000  0.206879000000  
0.478343000000  0.234521000000  0.213501000000  
0.480811000000  0.235233000000  0.227553000000  
0.545891000000  0.265628000000  0.233455000000  
0.550161000000  0.268554000000  0.246993000000  
0.494883000000  0.239849000000  0.253741000000  
0.494685000000  0.239777000000  0.266803000000  
0.549814000000  0.268311000000  0.273552000000  
0.545198000000  0.265166000000  0.286969000000  
0.479971000000  0.234988000000  0.293095000000  
0.479903000000  0.234968000000  0.307312000000  
0.544958000000  0.265007000000  0.313481000000  
0.549103000000  0.267816000000  0.326716000000  
0.494089000000  0.239562000000  0.333390000000  
0.494930000000  0.239866000000  0.346290000000  
0.551822000000  0.269731000000  0.353095000000  
0.547688000000  0.266843000000  0.366652000000  
0.482496000000  0.235736000000  0.372693000000  
0.480126000000  0.235032000000  0.386781000000  
0.541569000000  0.262805000000  0.393272000000  
0.626327000000  0.361029000000  0.207910000000  
0.590328000000  0.304512000000  0.213226000000  
0.591873000000  0.306288000000  0.226455000000  
0.627465000000  0.363691000000  0.230761000000  
0.632227000000  0.376118000000  0.245809000000  
0.600741000000  0.317293000000  0.253153000000  
0.600726000000  0.317273000000  0.267430000000  
0.631777000000  0.374836000000  0.274600000000  
0.627292000000  0.363280000000  0.289213000000  
0.591661000000  0.306043000000  0.293706000000  
0.591611000000  0.305985000000  0.306765000000  
0.627397000000  0.363529000000  0.311224000000  
0.632009000000  0.375492000000  0.325640000000  
0.600720000000  0.317265000000  0.332917000000  
0.601214000000  0.317922000000  0.346995000000  
0.632601000000  0.377202000000  0.354326000000  
0.627951000000  0.364859000000  0.369432000000  
0.593186000000  0.307830000000  0.373622000000  
0.591111000000  0.305407000000  0.386880000000  
0.626437000000  0.361284000000  0.392186000000  
0.625544000000  0.529632000000  0.408103000000  
0.641303000000  0.476472000000  0.419025000000  
0.182197000000  0.476279000000  0.418917000000  
0.627941000000  0.524055000000  0.430937000000  
0.633429000000  0.509210000000  0.445905000000  
0.179755000000  0.447283000000  0.452100000000  
0.179749000000  0.446855000000  0.468134000000  
0.633083000000  0.510256000000  0.474317000000  
0.627757000000  0.524500000000  0.488902000000  
0.641284000000  0.476588000000  0.500093000000  
0.182448000000  0.477857000000  0.500129000000  
0.628063000000  0.523758000000  0.511105000000  
0.633287000000  0.509642000000  0.525800000000  
0.179747000000  0.446599000000  0.531973000000  
0.179748000000  0.446711000000  0.548152000000  
0.633329000000  0.509514000000  0.554365000000  
0.627781000000  0.524442000000  0.569341000000  
0.641197000000  0.477139000000  0.581187000000  
0.182048000000  0.475305000000  0.581253000000  
0.625517000000  0.529693000000  0.592227000000  
0.541258000000  0.626282000000  0.407362000000  
0.589492000000  0.585324000000  0.413509000000  
0.592143000000  0.582286000000  0.426987000000  
0.545667000000  0.623410000000  0.434766000000  
0.558483000000  0.614212000000  0.449162000000  
0.605952000000  0.564388000000  0.453375000000  
0.605814000000  0.564587000000  0.466984000000  
0.557675000000  0.614832000000  0.471305000000  
0.544866000000  0.623943000000  0.485947000000  
0.591624000000  0.582889000000  0.493259000000  
0.591973000000  0.582484000000  0.506797000000  
0.545396000000  0.623591000000  0.514198000000  
0.558131000000  0.614483000000  0.528845000000  
0.606069000000  0.564219000000  0.533153000000  
0.605863000000  0.564516000000  0.546871000000  
0.558020000000  0.614568000000  0.551099000000  
0.544901000000  0.623920000000  0.565587000000  
0.591601000000  0.582916000000  0.573314000000  
0.589316000000  0.585521000000  0.586857000000  
0.541015000000  0.626435000000  0.593080000000  
0.412425000000  0.663582000000  0.407301000000  
0.480321000000  0.653800000000  0.413834000000  
0.481063000000  0.653582000000  0.428853000000  
0.411249000000  0.663583000000  0.435055000000  
0.397719000000  0.663181000000  0.449319000000  
0.449538000000  0.660660000000  0.460220000000  
0.514588000000  0.640891000000  0.460278000000  
0.396955000000  0.663136000000  0.471259000000  
0.410249000000  0.663579000000  0.485940000000  
0.480459000000  0.653759000000  0.492148000000  
0.481028000000  0.653592000000  0.508139000000  
0.411238000000  0.663583000000  0.514479000000  
0.398152000000  0.663206000000  0.528994000000  
0.449680000000  0.660638000000  0.539959000000  
0.514404000000  0.640977000000  0.540007000000  
0.396552000000  0.663112000000  0.550888000000  
0.409170000000  0.663570000000  0.565340000000  
0.479722000000  0.653974000000  0.571573000000  
0.479496000000  0.654039000000  0.586637000000  
0.411930000000  0.663583000000  0.593151000000  
0.282678000000  0.626539000000  0.406879000000  
0.345186000000  0.654368000000  0.413501000000  
0.342719000000  0.653656000000  0.427553000000  
0.277638000000  0.623261000000  0.433455000000  
0.273369000000  0.620335000000  0.446993000000  
0.328647000000  0.649040000000  0.453741000000  
0.328844000000  0.649112000000  0.466803000000  
0.273716000000  0.620578000000  0.473552000000  
0.278332000000  0.623723000000  0.486969000000  
0.343558000000  0.653901000000  0.493095000000  
0.343626000000  0.653921000000  0.507312000000  
0.278572000000  0.623882000000  0.513481000000  
0.274427000000  0.621073000000  0.526716000000  
0.329440000000  0.649326000000  0.533390000000  
0.328600000000  0.649023000000  0.546291000000  
0.271708000000  0.619158000000  0.553095000000  
0.275841000000  0.622046000000  0.566652000000  
0.341034000000  0.653153000000  0.572693000000  
0.343404000000  0.653857000000  0.586781000000  
0.281961000000  0.626084000000  0.593272000000  
0.197203000000  0.527860000000  0.407910000000  
0.233201000000  0.584377000000  0.413226000000  
0.231657000000  0.582601000000  0.426455000000  
0.196064000000  0.525198000000  0.430761000000  
0.191302000000  0.512770000000  0.445809000000  
0.222788000000  0.571596000000  0.453153000000  
0.222803000000  0.571615000000  0.467430000000  
0.191752000000  0.514053000000  0.474600000000  
0.196237000000  0.525608000000  0.489213000000  
0.231868000000  0.582846000000  0.493706000000  
0.231918000000  0.582904000000  0.506765000000  
0.196132000000  0.525360000000  0.511224000000  
0.191521000000  0.513397000000  0.525640000000  
0.222809000000  0.571624000000  0.532917000000  
0.222315000000  0.570967000000  0.546995000000  
0.190929000000  0.511687000000  0.554326000000  
0.195578000000  0.524030000000  0.569432000000  
0.230343000000  0.581059000000  0.573622000000  
0.232418000000  0.583481000000  0.586880000000  
0.197092000000  0.527605000000  0.592186000000  
0.197985000000  0.359257000000  0.408103000000  
0.182227000000  0.412417000000  0.419025000000  
0.641333000000  0.412610000000  0.418917000000  
0.195589000000  0.364834000000  0.430937000000  
0.190100000000  0.379679000000  0.445905000000  
0.643775000000  0.441606000000  0.452100000000  
0.643780000000  0.442034000000  0.468134000000  
0.190446000000  0.378632000000  0.474317000000  
0.195773000000  0.364389000000  0.488902000000  
0.182245000000  0.412300000000  0.500093000000  
0.641081000000  0.411032000000  0.500129000000  
0.195466000000  0.365131000000  0.511105000000  
0.190243000000  0.379247000000  0.525800000000  
0.643783000000  0.442290000000  0.531973000000  
0.643782000000  0.442178000000  0.548152000000  
0.190200000000  0.379375000000  0.554365000000  
0.195749000000  0.364447000000  0.569341000000  
0.182332000000  0.411750000000  0.581187000000  
0.641482000000  0.413584000000  0.581253000000  
0.198012000000  0.359196000000  0.592227000000  
0.282272000000  0.262607000000  0.407362000000  
0.234037000000  0.303565000000  0.413509000000  
0.231387000000  0.306603000000  0.426987000000  
0.277862000000  0.265479000000  0.434766000000  
0.265047000000  0.274677000000  0.449162000000  
0.217577000000  0.324501000000  0.453375000000  
0.217715000000  0.324302000000  0.466984000000  
0.265854000000  0.274057000000  0.471305000000  
0.278664000000  0.264946000000  0.485947000000  
0.231905000000  0.306000000000  0.493259000000  
0.231556000000  0.306405000000  0.506797000000  
0.278133000000  0.265298000000  0.514198000000  
0.265399000000  0.274406000000  0.528845000000  
0.217460000000  0.324670000000  0.533153000000  
0.217666000000  0.324373000000  0.546871000000  
0.265510000000  0.274321000000  0.551099000000  
0.278629000000  0.264969000000  0.565587000000  
0.231929000000  0.305973000000  0.573314000000  
0.234213000000  0.303368000000  0.586857000000  
0.282514000000  0.262454000000  0.593080000000  
0.411104000000  0.225307000000  0.407301000000  
0.343209000000  0.235089000000  0.413834000000  
0.342466000000  0.235307000000  0.428853000000  
0.412281000000  0.225306000000  0.435055000000  
0.425810000000  0.225708000000  0.449319000000  
0.373991000000  0.228229000000  0.460220000000  
0.308942000000  0.247998000000  0.460278000000  
0.426574000000  0.225752000000  0.471259000000  
0.413280000000  0.225310000000  0.485940000000  
0.343071000000  0.235130000000  0.492148000000  
0.342501000000  0.235297000000  0.508139000000  
0.412291000000  0.225306000000  0.514479000000  
0.425377000000  0.225683000000  0.528994000000  
0.373849000000  0.228251000000  0.539959000000  
0.309125000000  0.247912000000  0.540007000000  
0.426977000000  0.225777000000  0.550888000000  
0.414359000000  0.225319000000  0.565340000000  
0.343807000000  0.234915000000  0.571573000000  
0.344033000000  0.234850000000  0.586637000000  
0.411600000000  0.225306000000  0.593151000000  
0.540851000000  0.262349000000  0.406879000000  
0.478343000000  0.234521000000  0.413501000000  
0.480811000000  0.235233000000  0.427553000000  
0.545891000000  0.265628000000  0.433455000000  
0.550161000000  0.268554000000  0.446993000000  
0.494883000000  0.239849000000  0.453741000000  
0.494685000000  0.239777000000  0.466803000000  
0.549814000000  0.268311000000  0.473552000000  
0.545198000000  0.265166000000  0.486969000000  
0.479971000000  0.234988000000  0.493095000000  
0.479903000000  0.234968000000  0.507312000000  
0.544958000000  0.265007000000  0.513481000000  
0.549103000000  0.267816000000  0.526716000000  
0.494089000000  0.239562000000  0.533390000000  
0.494930000000  0.239866000000  0.546291000000  
0.551822000000  0.269731000000  0.553095000000  
0.547688000000  0.266843000000  0.566652000000  
0.482496000000  0.235736000000  0.572693000000  
0.480126000000  0.235032000000  0.586781000000  
0.541569000000  0.262805000000  0.593272000000  
0.626327000000  0.361029000000  0.407910000000  
0.590328000000  0.304512000000  0.413226000000  
0.591873000000  0.306288000000  0.426455000000  
0.627465000000  0.363691000000  0.430761000000  
0.632227000000  0.376118000000  0.445809000000  
0.600741000000  0.317293000000  0.453153000000  
0.600726000000  0.317273000000  0.467430000000  
0.631777000000  0.374836000000  0.474600000000  
0.627292000000  0.363280000000  0.489213000000  
0.591661000000  0.306043000000  0.493706000000  
0.591611000000  0.305985000000  0.506765000000  
0.627397000000  0.363529000000  0.511224000000  
0.632009000000  0.375492000000  0.525640000000  
0.600720000000  0.317265000000  0.532917000000  
0.601214000000  0.317922000000  0.546995000000  
0.632601000000  0.377202000000  0.554326000000  
0.627951000000  0.364859000000  0.569432000000  
0.593186000000  0.307830000000  0.573622000000  
0.591111000000  0.305407000000  0.586880000000  
0.626437000000  0.361284000000  0.592186000000  
0.625544000000  0.529632000000  0.608103000000  
0.641303000000  0.476472000000  0.619025000000  
0.182197000000  0.476279000000  0.618917000000  
0.627941000000  0.524055000000  0.630937000000  
0.633429000000  0.509210000000  0.645905000000  
0.179755000000  0.447283000000  0.652100000000  
0.179749000000  0.446855000000  0.668134000000  
0.633083000000  0.510256000000  0.674317000000  