ATOMIC_SPECIES
C 12.011 C_ONCV_PBE-1.0.upf

NUMERICAL_ORBITAL
C_gga_8au_60Ry_2s2p1d.orb

LATTICE_CONSTANT
1

LATTICE_VECTORS
32.1253418058417  0.00000000000000  0.000000000000000
0.00000000000000  34.0150677944206  0.000000000000000
0.00000000000000  0.00000000000000  202.8014700231377

ATOMIC_POSITIONS
Direct

C
0
1000
0.6255440000  0.5296320000  0.0081030000  1  1  1
0.6413030000  0.4764720000  0.0190250000  1  1  1
0.1821970000  0.4762790000  0.0189170000  1  1  1
0.6279410000  0.5240550000  0.0309370000  1  1  1
0.6334290000  0.5092100000  0.0459050000  1  1  1
0.1797550000  0.4472830000  0.0521000000  1  1  1
0.1797490000  0.4468550000  0.0681340000  1  1  1
0.6330830000  0.5102560000  0.0743170000  1  1  1
0.6277570000  0.5245000000  0.0889020000  1  1  1
0.6412840000  0.4765880000  0.1000930000  1  1  1
0.1824480000  0.4778570000  0.1001290000  1  1  1
0.6280630000  0.5237580000  0.1111050000  1  1  1
0.6332870000  0.5096420000  0.1258000000  1  1  1
0.1797470000  0.4465990000  0.1319730000  1  1  1
0.1797480000  0.4467110000  0.1481520000  1  1  1
0.6333290000  0.5095140000  0.1543650000  1  1  1
0.6277810000  0.5244420000  0.1693410000  1  1  1
0.6411970000  0.4771390000  0.1811870000  1  1  1
0.1820480000  0.4753050000  0.1812530000  1  1  1
0.6255170000  0.5296930000  0.1922270000  1  1  1
0.5412580000  0.6262820000  0.0073620000  1  1  1
0.5894920000  0.5853240000  0.0135090000  1  1  1
0.5921430000  0.5822860000  0.0269870000  1  1  1
0.5456670000  0.6234100000  0.0347660000  1  1  1
0.5584830000  0.6142120000  0.0491620000  1  1  1
0.6059520000  0.5643880000  0.0533750000  1  1  1
0.6058140000  0.5645870000  0.0669840000  1  1  1
0.5576750000  0.6148320000  0.0713050000  1  1  1
0.5448660000  0.6239430000  0.0859470000  1  1  1
0.5916240000  0.5828890000  0.0932590000  1  1  1
0.5919730000  0.5824840000  0.1067970000  1  1  1
0.5453960000  0.6235910000  0.1141980000  1  1  1
0.5581310000  0.6144830000  0.1288450000  1  1  1
0.6060690000  0.5642190000  0.1331530000  1  1  1
0.6058630000  0.5645160000  0.1468710000  1  1  1
0.5580200000  0.6145680000  0.1510990000  1  1  1
0.5449010000  0.6239200000  0.1655870000  1  1  1
0.5916010000  0.5829160000  0.1733140000  1  1  1
0.5893160000  0.5855210000  0.1868570000  1  1  1
0.5410150000  0.6264350000  0.1930800000  1  1  1
0.4124250000  0.6635820000  0.0073010000  1  1  1
0.4803210000  0.6538000000  0.0138340000  1  1  1
0.4810630000  0.6535820000  0.0288530000  1  1  1
0.4112490000  0.6635830000  0.0350550000  1  1  1
0.3977190000  0.6631810000  0.0493190000  1  1  1
0.4495380000  0.6606600000  0.0602200000  1  1  1
0.5145880000  0.6408910000  0.0602780000  1  1  1
0.3969550000  0.6631360000  0.0712590000  1  1  1
0.4102490000  0.6635790000  0.0859400000  1  1  1
0.4804590000  0.6537590000  0.0921480000  1  1  1
0.4810280000  0.6535920000  0.1081390000  1  1  1
0.4112380000  0.6635830000  0.1144780000  1  1  1
0.3981520000  0.6632060000  0.1289940000  1  1  1
0.4496800000  0.6606380000  0.1399590000  1  1  1
0.5144040000  0.6409770000  0.1400070000  1  1  1
0.3965520000  0.6631120000  0.1508880000  1  1  1
0.4091700000  0.6635700000  0.1653400000  1  1  1
0.4797220000  0.6539740000  0.1715730000  1  1  1
0.4794960000  0.6540390000  0.1866370000  1  1  1
0.4119300000  0.6635830000  0.1931510000  1  1  1
0.2826780000  0.6265390000  0.0068790000  1  1  1
0.3451860000  0.6543680000  0.0135010000  1  1  1
0.3427190000  0.6536560000  0.0275530000  1  1  1
0.2776380000  0.6232610000  0.0334550000  1  1  1
0.2733690000  0.6203350000  0.0469930000  1  1  1
0.3286470000  0.6490400000  0.0537410000  1  1  1
0.3288440000  0.6491120000  0.0668030000  1  1  1
0.2737160000  0.6205780000  0.0735520000  1  1  1
0.2783320000  0.6237230000  0.0869690000  1  1  1
0.3435580000  0.6539010000  0.0930950000  1  1  1
0.3436260000  0.6539210000  0.1073120000  1  1  1
0.2785720000  0.6238820000  0.1134810000  1  1  1
0.2744270000  0.6210730000  0.1267160000  1  1  1
0.3294400000  0.6493260000  0.1333900000  1  1  1
0.3286000000  0.6490230000  0.1462910000  1  1  1
0.2717080000  0.6191580000  0.1530950000  1  1  1
0.2758410000  0.6220460000  0.1666520000  1  1  1
0.3410340000  0.6531530000  0.1726930000  1  1  1
0.3434040000  0.6538570000  0.1867810000  1  1  1
0.2819610000  0.6260840000  0.1932720000  1  1  1
0.1972030000  0.5278600000  0.0079100000  1  1  1
0.2332010000  0.5843770000  0.0132260000  1  1  1
0.2316570000  0.5826010000  0.0264550000  1  1  1
0.1960640000  0.5251980000  0.0307610000  1  1  1
0.1913020000  0.5127700000  0.0458090000  1  1  1
0.2227880000  0.5715960000  0.0531530000  1  1  1
0.2228030000  0.5716150000  0.0674300000  1  1  1
0.1917520000  0.5140530000  0.0746000000  1  1  1
0.1962370000  0.5256080000  0.0892130000  1  1  1
0.2318680000  0.5828460000  0.0937060000  1  1  1
0.2319180000  0.5829040000  0.1067650000  1  1  1
0.1961320000  0.5253600000  0.1112240000  1  1  1
0.1915210000  0.5133970000  0.1256400000  1  1  1
0.2228090000  0.5716240000  0.1329170000  1  1  1
0.2223150000  0.5709670000  0.1469950000  1  1  1
0.1909290000  0.5116870000  0.1543260000  1  1  1
0.1955780000  0.5240300000  0.1694320000  1  1  1
0.2303430000  0.5810590000  0.1736220000  1  1  1
0.2324180000  0.5834810000  0.1868800000  1  1  1
0.1970920000  0.5276050000  0.1921860000  1  1  1
0.1979850000  0.3592570000  0.0081030000  1  1  1
0.1822270000  0.4124170000  0.0190250000  1  1  1
0.6413330000  0.4126100000  0.0189170000  1  1  1
0.1955890000  0.3648340000  0.0309370000  1  1  1
0.1901000000  0.3796790000  0.0459050000  1  1  1
0.6437750000  0.4416060000  0.0521000000  1  1  1
0.6437800000  0.4420340000  0.0681340000  1  1  1
0.1904460000  0.3786320000  0.0743170000  1  1  1
0.1957730000  0.3643890000  0.0889020000  1  1  1
0.1822450000  0.4123000000  0.1000930000  1  1  1
0.6410810000  0.4110320000  0.1001290000  1  1  1
0.1954660000  0.3651310000  0.1111050000  1  1  1
0.1902430000  0.3792470000  0.1258000000  1  1  1
0.6437830000  0.4422900000  0.1319730000  1  1  1
0.6437820000  0.4421780000  0.1481520000  1  1  1
0.1902000000  0.3793750000  0.1543650000  1  1  1
0.1957490000  0.3644470000  0.1693410000  1  1  1
0.1823320000  0.4117500000  0.1811870000  1  1  1
0.6414820000  0.4135840000  0.1812530000  1  1  1
0.1980120000  0.3591960000  0.1922270000  1  1  1
0.2822720000  0.2626070000  0.0073620000  1  1  1
0.2340370000  0.3035650000  0.0135090000  1  1  1
0.2313870000  0.3066030000  0.0269870000  1  1  1
0.2778620000  0.2654790000  0.0347660000  1  1  1
0.2650470000  0.2746770000  0.0491620000  1  1  1
0.2175770000  0.3245010000  0.0533750000  1  1  1
0.2177150000  0.3243020000  0.0669840000  1  1  1
0.2658540000  0.2740570000  0.0713050000  1  1  1
0.2786640000  0.2649460000  0.0859470000  1  1  1
0.2319050000  0.3060000000  0.0932590000  1  1  1
0.2315560000  0.3064050000  0.1067970000  1  1  1
0.2781330000  0.2652980000  0.1141980000  1  1  1
0.2653990000  0.2744060000  0.1288450000  1  1  1
0.2174600000  0.3246700000  0.1331530000  1  1  1
0.2176660000  0.3243730000  0.1468710000  1  1  1
0.2655100000  0.2743210000  0.1510990000  1  1  1
0.2786290000  0.2649690000  0.1655870000  1  1  1
0.2319290000  0.3059730000  0.1733140000  1  1  1
0.2342130000  0.3033680000  0.1868570000  1  1  1
0.2825140000  0.2624540000  0.1930800000  1  1  1
0.4111040000  0.2253070000  0.0073010000  1  1  1
0.3432090000  0.2350890000  0.0138340000  1  1  1
0.3424660000  0.2353070000  0.0288530000  1  1  1
0.4122810000  0.2253060000  0.0350550000  1  1  1
0.4258100000  0.2257080000  0.0493190000  1  1  1
0.3739910000  0.2282290000  0.0602200000  1  1  1
0.3089420000  0.2479980000  0.0602780000  1  1  1
0.4265740000  0.2257520000  0.0712590000  1  1  1
0.4132800000  0.2253100000  0.0859400000  1  1  1
0.3430710000  0.2351300000  0.0921480000  1  1  1
0.3425010000  0.2352970000  0.1081390000  1  1  1
0.4122910000  0.2253060000  0.1144780000  1  1  1
0.4253770000  0.2256830000  0.1289940000  1  1  1
0.3738490000  0.2282510000  0.1399590000  1  1  1
0.3091250000  0.2479120000  0.1400070000  1  1  1
0.4269770000  0.2257770000  0.1508880000  1  1  1
0.4143590000  0.2253190000  0.1653400000  1  1  1
0.3438070000  0.2349150000  0.1715730000  1  1  1
0.3440330000  0.2348500000  0.1866370000  1  1  1
0.4116000000  0.2253060000  0.1931510000  1  1  1
0.5408510000  0.2623490000  0.0068790000  1  1  1
0.4783430000  0.2345210000  0.0135010000  1  1  1
0.4808110000  0.2352330000  0.0275530000  1  1  1
0.5458910000  0.2656280000  0.0334550000  1  1  1
0.5501610000  0.2685540000  0.0469930000  1  1  1
0.4948830000  0.2398490000  0.0537410000  1  1  1
0.4946850000  0.2397770000  0.0668030000  1  1  1
0.5498140000  0.2683110000  0.0735520000  1  1  1
0.5451980000  0.2651660000  0.0869690000  1  1  1
0.4799710000  0.2349880000  0.0930950000  1  1  1
0.4799030000  0.2349680000  0.1073120000  1  1  1
0.5449580000  0.2650070000  0.1134810000  1  1  1
0.5491030000  0.2678160000  0.1267160000  1  1  1
0.4940890000  0.2395620000  0.1333900000  1  1  1
0.4949300000  0.2398660000  0.1462910000  1  1  1
0.5518220000  0.2697310000  0.1530950000  1  1  1
0.5476880000  0.2668430000  0.1666520000  1  1  1
0.4824960000  0.2357360000  0.1726930000  1  1  1
0.4801260000  0.2350320000  0.1867810000  1  1  1
0.5415690000  0.2628050000  0.1932720000  1  1  1
0.6263270000  0.3610290000  0.0079100000  1  1  1
0.5903280000  0.3045120000  0.0132260000  1  1  1
0.5918730000  0.3062880000  0.0264550000  1  1  1
0.6274650000  0.3636910000  0.0307610000  1  1  1
0.6322270000  0.3761180000  0.0458090000  1  1  1
0.6007410000  0.3172930000  0.0531530000  1  1  1
0.6007260000  0.3172730000  0.0674300000  1  1  1
0.6317770000  0.3748360000  0.0746000000  1  1  1
0.6272920000  0.3632800000  0.0892130000  1  1  1
0.5916610000  0.3060430000  0.0937060000  1  1  1
0.5916110000  0.3059850000  0.1067650000  1  1  1
0.6273970000  0.3635290000  0.1112240000  1  1  1
0.6320090000  0.3754920000  0.1256400000  1  1  1
0.6007200000  0.3172650000  0.1329170000  1  1  1
0.6012140000  0.3179220000  0.1469950000  1  1  1
0.6326010000  0.3772020000  0.1543260000  1  1  1
0.6279510000  0.3648590000  0.1694320000  1  1  1
0.5931860000  0.3078300000  0.1736220000  1  1  1
0.5911110000  0.3054070000  0.1868800000  1  1  1
0.6264370000  0.3612840000  0.1921860000  1  1  1
0.6255440000  0.5296320000  0.2081030000  1  1  1
0.6413030000  0.4764720000  0.2190250000  1  1  1
0.1821970000  0.4762790000  0.2189170000  1  1  1
0.6279410000  0.5240550000  0.2309370000  1  1  1
0.6334290000  0.5092100000  0.2459050000  1  1  1
0.1797550000  0.4472830000  0.2521000000  1  1  1
0.1797490000  0.4468550000  0.2681340000  1  1  1
0.6330830000  0.5102560000  0.2743170000  1  1  1
0.6277570000  0.5245000000  0.2889020000  1  1  1
0.6412840000  0.4765880000  0.3000930000  1  1  1
0.1824480000  0.4778570000  0.3001290000  1  1  1
0.6280630000  0.5237580000  0.3111050000  1  1  1
0.6332870000  0.5096420000  0.3258000000  1  1  1
0.1797470000  0.4465990000  0.3319730000  1  1  1
0.1797480000  0.4467110000  0.3481520000  1  1  1
0.6333290000  0.5095140000  0.3543650000  1  1  1
0.6277810000  0.5244420000  0.3693410000  1  1  1
0.6411970000  0.4771390000  0.3811870000  1  1  1
0.1820480000  0.4753050000  0.3812530000  1  1  1
0.6255170000  0.5296930000  0.3922270000  1  1  1
0.5412580000  0.6262820000  0.2073620000  1  1  1
0.5894920000  0.5853240000  0.2135090000  1  1  1
0.5921430000  0.5822860000  0.2269870000  1  1  1
0.5456670000  0.6234100000  0.2347660000  1  1  1
0.5584830000  0.6142120000  0.2491620000  1  1  1
0.6059520000  0.5643880000  0.2533750000  1  1  1
0.6058140000  0.5645870000  0.2669840000  1  1  1
0.5576750000  0.6148320000  0.2713050000  1  1  1
0.5448660000  0.6239430000  0.2859470000  1  1  1
0.5916240000  0.5828890000  0.2932590000  1  1  1
0.5919730000  0.5824840000  0.3067970000  1  1  1
0.5453960000  0.6235910000  0.3141980000  1  1  1
0.5581310000  0.6144830000  0.3288450000  1  1  1
0.6060690000  0.5642190000  0.3331530000  1  1  1
0.6058630000  0.5645160000  0.3468710000  1  1  1
0.5580200000  0.6145680000  0.3510990000  1  1  1
0.5449010000  0.6239200000  0.3655870000  1  1  1
0.5916010000  0.5829160000  0.3733140000  1  1  1
0.5893160000  0.5855210000  0.3868570000  1  1  1
0.5410150000  0.6264350000  0.3930800000  1  1  1
0.4124250000  0.6635820000  0.2073010000  1  1  1
0.4803210000  0.6538000000  0.2138340000  1  1  1
0.4810630000  0.6535820000  0.2288530000  1  1  1
0.4112490000  0.6635830000  0.2350550000  1  1  1
0.3977190000  0.6631810000  0.2493190000  1  1  1
0.4495380000  0.6606600000  0.2602200000  1  1  1
0.5145880000  0.6408910000  0.2602780000  1  1  1
0.3969550000  0.6631360000  0.2712590000  1  1  1
0.4102490000  0.6635790000  0.2859400000  1  1  1
0.4804590000  0.6537590000  0.2921480000  1  1  1
0.4810280000  0.6535920000  0.3081390000  1  1  1
0.4112380000  0.6635830000  0.3144790000  1  1  1
0.3981520000  0.6632060000  0.3289940000  1  1  1
0.4496800000  0.6606380000  0.3399590000  1  1  1
0.5144040000  0.6409770000  0.3400070000  1  1  1
0.3965520000  0.6631120000  0.3508880000  1  1  1
0.4091700000  0.6635700000  0.3653400000  1  1  1
0.4797220000  0.6539740000  0.3715730000  1  1  1
0.4794960000  0.6540390000  0.3866370000  1  1  1
0.4119300000  0.6635830000  0.3931510000  1  1  1
0.2826780000  0.6265390000  0.2068790000  1  1  1
0.3451860000  0.6543680000  0.2135010000  1  1  1
0.3427190000  0.6536560000  0.2275530000  1  1  1
0.2776380000  0.6232610000  0.2334550000  1  1  1
0.2733690000  0.6203350000  0.2469930000  1  1  1
0.3286470000  0.6490400000  0.2537410000  1  1  1
0.3288440000  0.6491120000  0.2668030000  1  1  1
0.2737160000  0.6205780000  0.2735520000  1  1  1
0.2783320000  0.6237230000  0.2869690000  1  1  1
0.3435580000  0.6539010000  0.2930950000  1  1  1
0.3436260000  0.6539210000  0.3073120000  1  1  1
0.2785720000  0.6238820000  0.3134810000  1  1  1
0.2744270000  0.6210730000  0.3267160000  1  1  1
0.3294400000  0.6493260000  0.3333900000  1  1  1
0.3286000000  0.6490230000  0.3462900000  1  1  1
0.2717080000  0.6191580000  0.3530950000  1  1  1
0.2758410000  0.6220460000  0.3666520000  1  1  1
0.3410340000  0.6531530000  0.3726930000  1  1  1
0.3434040000  0.6538570000  0.3867810000  1  1  1
0.2819610000  0.6260840000  0.3932720000  1  1  1
0.1972030000  0.5278600000  0.2079100000  1  1  1
0.2332010000  0.5843770000  0.2132260000  1  1  1
0.2316570000  0.5826010000  0.2264550000  1  1  1
0.1960640000  0.5251980000  0.2307610000  1  1  1
0.1913020000  0.5127700000  0.2458090000  1  1  1
0.2227880000  0.5715960000  0.2531530000  1  1  1
0.2228030000  0.5716150000  0.2674300000  1  1  1
0.1917520000  0.5140530000  0.2746000000  1  1  1
0.1962370000  0.5256080000  0.2892130000  1  1  1
0.2318680000  0.5828460000  0.2937060000  1  1  1
0.2319180000  0.5829040000  0.3067650000  1  1  1
0.1961320000  0.5253600000  0.3112240000  1  1  1
0.1915210000  0.5133970000  0.3256400000  1  1  1
0.2228090000  0.5716240000  0.3329170000  1  1  1
0.2223150000  0.5709670000  0.3469950000  1  1  1
0.1909290000  0.5116870000  0.3543260000  1  1  1
0.1955780000  0.5240300000  0.3694320000  1  1  1
0.2303430000  0.5810590000  0.3736220000  1  1  1
0.2324180000  0.5834810000  0.3868800000  1  1  1
0.1970920000  0.5276050000  0.3921860000  1  1  1
0.1979850000  0.3592570000  0.2081030000  1  1  1
0.1822270000  0.4124170000  0.2190250000  1  1  1
0.6413330000  0.4126100000  0.2189170000  1  1  1
0.1955890000  0.3648340000  0.2309370000  1  1  1
0.1901000000  0.3796790000  0.2459050000  1  1  1
0.6437750000  0.4416060000  0.2521000000  1  1  1
0.6437800000  0.4420340000  0.2681340000  1  1  1
0.1904460000  0.3786320000  0.2743170000  1  1  1
0.1957730000  0.3643890000  0.2889020000  1  1  1
0.1822450000  0.4123000000  0.3000930000  1  1  1
0.6410810000  0.4110320000  0.3001290000  1  1  1
0.1954660000  0.3651310000  0.3111050000  1  1  1
0.1902430000  0.3792470000  0.3258000000  1  1  1
0.6437830000  0.4422900000  0.3319730000  1  1  1
0.6437820000  0.4421780000  0.3481520000  1  1  1
0.1902000000  0.3793750000  0.3543650000  1  1  1
0.1957490000  0.3644470000  0.3693410000  1  1  1
0.1823320000  0.4117500000  0.3811870000  1  1  1
0.6414820000  0.4135840000  0.3812530000  1  1  1
0.1980120000  0.3591960000  0.3922270000  1  1  1
0.2822720000  0.2626070000  0.2073620000  1  1  1
0.2340370000  0.3035650000  0.2135090000  1  1  1
0.2313870000  0.3066030000  0.2269870000  1  1  1
0.2778620000  0.2654790000  0.2347660000  1  1  1
0.2650470000  0.2746770000  0.2491620000  1  1  1
0.2175770000  0.3245010000  0.2533750000  1  1  1
0.2177150000  0.3243020000  0.2669840000  1  1  1
0.2658540000  0.2740570000  0.2713050000  1  1  1
0.2786640000  0.2649460000  0.2859470000  1  1  1
0.2319050000  0.3060000000  0.2932590000  1  1  1
0.2315560000  0.3064050000  0.3067970000  1  1  1
0.2781330000  0.2652980000  0.3141980000  1  1  1
0.2653990000  0.2744060000  0.3288450000  1  1  1
0.2174600000  0.3246700000  0.3331530000  1  1  1
0.2176660000  0.3243730000  0.3468710000  1  1  1
0.2655100000  0.2743210000  0.3510990000  1  1  1
0.2786290000  0.2649690000  0.3655870000  1  1  1
0.2319290000  0.3059730000  0.3733140000  1  1  1
0.2342130000  0.3033680000  0.3868570000  1  1  1
0.2825140000  0.2624540000  0.3930800000  1  1  1
0.4111040000  0.2253070000  0.2073010000  1  1  1
0.3432090000  0.2350890000  0.2138340000  1  1  1
0.3424660000  0.2353070000  0.2288530000  1  1  1
0.4122810000  0.2253060000  0.2350550000  1  1  1
0.4258100000  0.2257080000  0.2493190000  1  1  1
0.3739910000  0.2282290000  0.2602200000  1  1  1
0.3089420000  0.2479980000  0.2602780000  1  1  1
0.4265740000  0.2257520000  0.2712590000  1  1  1
0.4132800000  0.2253100000  0.2859400000  1  1  1
0.3430710000  0.2351300000  0.2921480000  1  1  1
0.3425010000  0.2352970000  0.3081390000  1  1  1
0.4122910000  0.2253060000  0.3144790000  1  1  1
0.4253770000  0.2256830000  0.3289940000  1  1  1
0.3738490000  0.2282510000  0.3399590000  1  1  1
0.3091250000  0.2479120000  0.3400070000  1  1  1
0.4269770000  0.2257770000  0.3508880000  1  1  1
0.4143590000  0.2253190000  0.3653400000  1  1  1
0.3438070000  0.2349150000  0.3715730000  1  1  1
0.3440330000  0.2348500000  0.3866370000  1  1  1
0.4116000000  0.2253060000  0.3931510000  1  1  1
0.5408510000  0.2623490000  0.2068790000  1  1  1
0.4783430000  0.2345210000  0.2135010000  1  1  1
0.4808110000  0.2352330000  0.2275530000  1  1  1
0.5458910000  0.2656280000  0.2334550000  1  1  1
0.5501610000  0.2685540000  0.2469930000  1  1  1
0.4948830000  0.2398490000  0.2537410000  1  1  1
0.4946850000  0.2397770000  0.2668030000  1  1  1
0.5498140000  0.2683110000  0.2735520000  1  1  1
0.5451980000  0.2651660000  0.2869690000  1  1  1
0.4799710000  0.2349880000  0.2930950000  1  1  1
0.4799030000  0.2349680000  0.3073120000  1  1  1
0.5449580000  0.2650070000  0.3134810000  1  1  1
0.5491030000  0.2678160000  0.3267160000  1  1  1
0.4940890000  0.2395620000  0.3333900000  1  1  1
0.4949300000  0.2398660000  0.3462900000  1  1  1
0.5518220000  0.2697310000  0.3530950000  1  1  1
0.5476880000  0.2668430000  0.3666520000  1  1  1
0.4824960000  0.2357360000  0.3726930000  1  1  1
0.4801260000  0.2350320000  0.3867810000  1  1  1
0.5415690000  0.2628050000  0.3932720000  1  1  1
0.6263270000  0.3610290000  0.2079100000  1  1  1
0.5903280000  0.3045120000  0.2132260000  1  1  1
0.5918730000  0.3062880000  0.2264550000  1  1  1
0.6274650000  0.3636910000  0.2307610000  1  1  1
0.6322270000  0.3761180000  0.2458090000  1  1  1
0.6007410000  0.3172930000  0.2531530000  1  1  1
0.6007260000  0.3172730000  0.2674300000  1  1  1
0.6317770000  0.3748360000  0.2746000000  1  1  1
0.6272920000  0.3632800000  0.2892130000  1  1  1
0.5916610000  0.3060430000  0.2937060000  1  1  1
0.5916110000  0.3059850000  0.3067650000  1  1  1
0.6273970000  0.3635290000  0.3112240000  1  1  1
0.6320090000  0.3754920000  0.3256400000  1  1  1
0.6007200000  0.3172650000  0.3329170000  1  1  1
0.6012140000  0.3179220000  0.3469950000  1  1  1
0.6326010000  0.3772020000  0.3543260000  1  1  1
0.6279510000  0.3648590000  0.3694320000  1  1  1
0.5931860000  0.3078300000  0.3736220000  1  1  1
0.5911110000  0.3054070000  0.3868800000  1  1  1
0.6264370000  0.3612840000  0.3921860000  1  1  1
0.6255440000  0.5296320000  0.4081030000  1  1  1
0.6413030000  0.4764720000  0.4190250000  1  1  1
0.1821970000  0.4762790000  0.4189170000  1  1  1
0.6279410000  0.5240550000  0.4309370000  1  1  1
0.6334290000  0.5092100000  0.4459050000  1  1  1
0.1797550000  0.4472830000  0.4521000000  1  1  1
0.1797490000  0.4468550000  0.4681340000  1  1  1
0.6330830000  0.5102560000  0.4743170000  1  1  1
0.6277570000  0.5245000000  0.4889020000  1  1  1
0.6412840000  0.4765880000  0.5000930000  1  1  1
0.1824480000  0.4778570000  0.5001290000  1  1  1
0.6280630000  0.5237580000  0.5111050000  1  1  1
0.6332870000  0.5096420000  0.5258000000  1  1  1
0.1797470000  0.4465990000  0.5319730000  1  1  1
0.1797480000  0.4467110000  0.5481520000  1  1  1
0.6333290000  0.5095140000  0.5543650000  1  1  1
0.6277810000  0.5244420000  0.5693410000  1  1  1
0.6411970000  0.4771390000  0.5811870000  1  1  1
0.1820480000  0.4753050000  0.5812530000  1  1  1
0.6255170000  0.5296930000  0.5922270000  1  1  1
0.5412580000  0.6262820000  0.4073620000  1  1  1
0.5894920000  0.5853240000  0.4135090000  1  1  1
0.5921430000  0.5822860000  0.4269870000  1  1  1
0.5456670000  0.6234100000  0.4347660000  1  1  1
0.5584830000  0.6142120000  0.4491620000  1  1  1
0.6059520000  0.5643880000  0.4533750000  1  1  1
0.6058140000  0.5645870000  0.4669840000  1  1  1
0.5576750000  0.6148320000  0.4713050000  1  1  1
0.5448660000  0.6239430000  0.4859470000  1  1  1
0.5916240000  0.5828890000  0.4932590000  1  1  1
0.5919730000  0.5824840000  0.5067970000  1  1  1
0.5453960000  0.6235910000  0.5141980000  1  1  1
0.5581310000  0.6144830000  0.5288450000  1  1  1
0.6060690000  0.5642190000  0.5331530000  1  1  1
0.6058630000  0.5645160000  0.5468710000  1  1  1
0.5580200000  0.6145680000  0.5510990000  1  1  1
0.5449010000  0.6239200000  0.5655870000  1  1  1
0.5916010000  0.5829160000  0.5733140000  1  1  1
0.5893160000  0.5855210000  0.5868570000  1  1  1
0.5410150000  0.6264350000  0.5930800000  1  1  1
0.4124250000  0.6635820000  0.4073010000  1  1  1
0.4803210000  0.6538000000  0.4138340000  1  1  1
0.4810630000  0.6535820000  0.4288530000  1  1  1
0.4112490000  0.6635830000  0.4350550000  1  1  1
0.3977190000  0.6631810000  0.4493190000  1  1  1
0.4495380000  0.6606600000  0.4602200000  1  1  1
0.5145880000  0.6408910000  0.4602780000  1  1  1
0.3969550000  0.6631360000  0.4712590000  1  1  1
0.4102490000  0.6635790000  0.4859400000  1  1  1
0.4804590000  0.6537590000  0.4921480000  1  1  1
0.4810280000  0.6535920000  0.5081390000  1  1  1
0.4112380000  0.6635830000  0.5144790000  1  1  1
0.3981520000  0.6632060000  0.5289940000  1  1  1
0.4496800000  0.6606380000  0.5399590000  1  1  1
0.5144040000  0.6409770000  0.5400070000  1  1  1
0.3965520000  0.6631120000  0.5508880000  1  1  1
0.4091700000  0.6635700000  0.5653400000  1  1  1
0.4797220000  0.6539740000  0.5715730000  1  1  1
0.4794960000  0.6540390000  0.5866370000  1  1  1
0.4119300000  0.6635830000  0.5931510000  1  1  1
0.2826780000  0.6265390000  0.4068790000  1  1  1
0.3451860000  0.6543680000  0.4135010000  1  1  1
0.3427190000  0.6536560000  0.4275530000  1  1  1
0.2776380000  0.6232610000  0.4334550000  1  1  1
0.2733690000  0.6203350000  0.4469930000  1  1  1
0.3286470000  0.6490400000  0.4537410000  1  1  1
0.3288440000  0.6491120000  0.4668030000  1  1  1
0.2737160000  0.6205780000  0.4735520000  1  1  1
0.2783320000  0.6237230000  0.4869690000  1  1  1
0.3435580000  0.6539010000  0.4930950000  1  1  1
0.3436260000  0.6539210000  0.5073120000  1  1  1
0.2785720000  0.6238820000  0.5134810000  1  1  1
0.2744270000  0.6210730000  0.5267160000  1  1  1
0.3294400000  0.6493260000  0.5333900000  1  1  1
0.3286000000  0.6490230000  0.5462910000  1  1  1
0.2717080000  0.6191580000  0.5530950000  1  1  1
0.2758410000  0.6220460000  0.5666520000  1  1  1
0.3410340000  0.6531530000  0.5726930000  1  1  1
0.3434040000  0.6538570000  0.5867810000  1  1  1
0.2819610000  0.6260840000  0.5932720000  1  1  1
0.1972030000  0.5278600000  0.4079100000  1  1  1
0.2332010000  0.5843770000  0.4132260000  1  1  1
0.2316570000  0.5826010000  0.4264550000  1  1  1
0.1960640000  0.5251980000  0.4307610000  1  1  1
0.1913020000  0.5127700000  0.4458090000  1  1  1
0.2227880000  0.5715960000  0.4531530000  1  1  1
0.2228030000  0.5716150000  0.4674300000  1  1  1
0.1917520000  0.5140530000  0.4746000000  1  1  1
0.1962370000  0.5256080000  0.4892130000  1  1  1
0.2318680000  0.5828460000  0.4937060000  1  1  1
0.2319180000  0.5829040000  0.5067650000  1  1  1
0.1961320000  0.5253600000  0.5112240000  1  1  1
0.1915210000  0.5133970000  0.5256400000  1  1  1
0.2228090000  0.5716240000  0.5329170000  1  1  1
0.2223150000  0.5709670000  0.5469950000  1  1  1
0.1909290000  0.5116870000  0.5543260000  1  1  1
0.1955780000  0.5240300000  0.5694320000  1  1  1
0.2303430000  0.5810590000  0.5736220000  1  1  1
0.2324180000  0.5834810000  0.5868800000  1  1  1
0.1970920000  0.5276050000  0.5921860000  1  1  1
0.1979850000  0.3592570000  0.4081030000  1  1  1
0.1822270000  0.4124170000  0.4190250000  1  1  1
0.6413330000  0.4126100000  0.4189170000  1  1  1
0.1955890000  0.3648340000  0.4309370000  1  1  1
0.1901000000  0.3796790000  0.4459050000  1  1  1
0.6437750000  0.4416060000  0.4521000000  1  1  1
0.6437800000  0.4420340000  0.4681340000  1  1  1
0.1904460000  0.3786320000  0.4743170000  1  1  1
0.1957730000  0.3643890000  0.4889020000  1  1  1
0.1822450000  0.4123000000  0.5000930000  1  1  1
0.6410810000  0.4110320000  0.5001290000  1  1  1
0.1954660000  0.3651310000  0.5111050000  1  1  1
0.1902430000  0.3792470000  0.5258000000  1  1  1
0.6437830000  0.4422900000  0.5319730000  1  1  1
0.6437820000  0.4421780000  0.5481520000  1  1  1
0.1902000000  0.3793750000  0.5543650000  1  1  1
0.1957490000  0.3644470000  0.5693410000  1  1  1
0.1823320000  0.4117500000  0.5811870000  1  1  1
0.6414820000  0.4135840000  0.5812530000  1  1  1
0.1980120000  0.3591960000  0.5922270000  1  1  1
0.2822720000  0.2626070000  0.4073620000  1  1  1
0.2340370000  0.3035650000  0.4135090000  1  1  1
0.2313870000  0.3066030000  0.4269870000  1  1  1
0.2778620000  0.2654790000  0.4347660000  1  1  1
0.2650470000  0.2746770000  0.4491620000  1  1  1
0.2175770000  0.3245010000  0.4533750000  1  1  1
0.2177150000  0.3243020000  0.4669840000  1  1  1
0.2658540000  0.2740570000  0.4713050000  1  1  1
0.2786640000  0.2649460000  0.4859470000  1  1  1
0.2319050000  0.3060000000  0.4932590000  1  1  1
0.2315560000  0.3064050000  0.5067970000  1  1  1
0.2781330000  0.2652980000  0.5141980000  1  1  1
0.2653990000  0.2744060000  0.5288450000  1  1  1
0.2174600000  0.3246700000  0.5331530000  1  1  1
0.2176660000  0.3243730000  0.5468710000  1  1  1
0.2655100000  0.2743210000  0.5510990000  1  1  1
0.2786290000  0.2649690000  0.5655870000  1  1  1
0.2319290000  0.3059730000  0.5733140000  1  1  1
0.2342130000  0.3033680000  0.5868570000  1  1  1
0.2825140000  0.2624540000  0.5930800000  1  1  1
0.4111040000  0.2253070000  0.4073010000  1  1  1
0.3432090000  0.2350890000  0.4138340000  1  1  1
0.3424660000  0.2353070000  0.4288530000  1  1  1
0.4122810000  0.2253060000  0.4350550000  1  1  1
0.4258100000  0.2257080000  0.4493190000  1  1  1
0.3739910000  0.2282290000  0.4602200000  1  1  1
0.3089420000  0.2479980000  0.4602780000  1  1  1
0.4265740000  0.2257520000  0.4712590000  1  1  1
0.4132800000  0.2253100000  0.4859400000  1  1  1
0.3430710000  0.2351300000  0.4921480000  1  1  1
0.3425010000  0.2352970000  0.5081390000  1  1  1
0.4122910000  0.2253060000  0.5144790000  1  1  1
0.4253770000  0.2256830000  0.5289940000  1  1  1
0.3738490000  0.2282510000  0.5399590000  1  1  1
0.3091250000  0.2479120000  0.5400070000  1  1  1
0.4269770000  0.2257770000  0.5508880000  1  1  1
0.4143590000  0.2253190000  0.5653400000  1  1  1
0.3438070000  0.2349150000  0.5715730000  1  1  1
0.3440330000  0.2348500000  0.5866370000  1  1  1
0.4116000000  0.2253060000  0.5931510000  1  1  1
0.5408510000  0.2623490000  0.4068790000  1  1  1
0.4783430000  0.2345210000  0.4135010000  1  1  1
0.4808110000  0.2352330000  0.4275530000  1  1  1
0.5458910000  0.2656280000  0.4334550000  1  1  1
0.5501610000  0.2685540000  0.4469930000  1  1  1
0.4948830000  0.2398490000  0.4537410000  1  1  1
0.4946850000  0.2397770000  0.4668030000  1  1  1
0.5498140000  0.2683110000  0.4735520000  1  1  1
0.5451980000  0.2651660000  0.4869690000  1  1  1
0.4799710000  0.2349880000  0.4930950000  1  1  1
0.4799030000  0.2349680000  0.5073120000  1  1  1
0.5449580000  0.2650070000  0.5134810000  1  1  1
0.5491030000  0.2678160000  0.5267160000  1  1  1
0.4940890000  0.2395620000  0.5333900000  1  1  1
0.4949300000  0.2398660000  0.5462910000  1  1  1
0.5518220000  0.2697310000  0.5530950000  1  1  1
0.5476880000  0.2668430000  0.5666520000  1  1  1
0.4824960000  0.2357360000  0.5726930000  1  1  1
0.4801260000  0.2350320000  0.5867810000  1  1  1
0.5415690000  0.2628050000  0.5932720000  1  1  1
0.6263270000  0.3610290000  0.4079100000  1  1  1
0.5903280000  0.3045120000  0.4132260000  1  1  1
0.5918730000  0.3062880000  0.4264550000  1  1  1
0.6274650000  0.3636910000  0.4307610000  1  1  1
0.6322270000  0.3761180000  0.4458090000  1  1  1
0.6007410000  0.3172930000  0.4531530000  1  1  1
0.6007260000  0.3172730000  0.4674300000  1  1  1
0.6317770000  0.3748360000  0.4746000000  1  1  1
0.6272920000  0.3632800000  0.4892130000  1  1  1
0.5916610000  0.3060430000  0.4937060000  1  1  1
0.5916110000  0.3059850000  0.5067650000  1  1  1
0.6273970000  0.3635290000  0.5112240000  1  1  1
0.6320090000  0.3754920000  0.5256400000  1  1  1