%BLOCK LATTICE_CART
   2.805799707700000   0.000000000000000   0.000000000000000
   1.402899853850000   2.429893824799152   0.000000000000000
   0.000000000000003   0.000000000000002  51.460853617189706
%END BLOCK LATTICE_CART
%BLOCK POSITIONS_FRAC
    Al   0.000000000000000   0.000000000000000   0.999904988894124
    Al   0.333333333300000   0.333333333300000   0.045235751996034
    Al   0.666666666700000   0.666666666700000   0.090564660071551
    Al   0.000000000000000   0.000000000000000   0.135893920977228
    Al   0.333333333300000   0.333333333300000   0.181253163321723
    Al   0.000000000000000   0.000000000000000   0.226659956852610
    Al   0.466666666700000   0.466666666700000   0.273147522373540
    Al   0.800000000000000   0.800000000000000   0.318518468822421
    Al   0.133333333300000   0.133333333300000   0.363851100326815
    Al   0.466666666700000   0.466666666700000   0.409183473625604
    Al   0.800000000000000   0.800000000000000   0.454544956717654
    Al   0.466666666700000   0.466666666700000   0.499906497495598
    Al   0.133333333300000   0.133333333300000   0.545239022960236
    Al   0.800000000000000   0.800000000000000   0.590571881484401
    Al   0.466666666700000   0.466666666700000   0.635943093082718
    Al   0.000000000000000   0.000000000000000   0.682430930109534
    Al   0.333333333300000   0.333333333300000   0.727838022016540
    Al   1.000000000000000   1.000000000000000   0.773197528228648
    Al   0.666666666700000   0.666666666700000   0.818526987823954
    Al   0.333333333300000   0.333333333300000   0.863856024549040
    Al   0.000000000000000   0.000000000000000   0.909186853509983
    Al   0.666666666700000   0.666666666700000   0.954545930438599
%END BLOCK POSITIONS_FRAC
%BLOCK SPECIES_POT
    Al al.lda.recpot                                                                          
%END BLOCK SPECIES_POT
%BLOCK ION_OPTIMIZATION
           0           0           1
           0           0           1
           0           0           1
           0           0           1
           0           0           1
           0           0           1
           0           0           1
           0           0           1
           0           0           1
           0           0           1
           0           0           1
           0           0           1
           0           0           1
           0           0           1
           0           0           1
           0           0           1
           0           0           1
           0           0           1
           0           0           1
           0           0           1
           0           0           1
           0           0           1
%END BLOCK ION_OPTIMIZATION
