%BLOCK LATTICE_CART
   0.001427696287653   2.801645398659923   2.801859741783044
   2.801849820402705   0.001601992788013   2.801890797149527
   2.801809638644985   2.801636272128369   0.001386482737781
%END BLOCK LATTICE_CART
%BLOCK POSITIONS_FRAC
    Li   0.000000000000000   0.000000000000000   0.000000000000000
    Li   0.250000000000000   0.250000000000000   0.250000000000000
%END BLOCK POSITIONS_FRAC
%BLOCK SPECIES_POT
    Li li.lda.recpot                                                                          
%END BLOCK SPECIES_POT
