ATOMIC_SPECIES
Al 26.981539 Al_ONCV_PBE-1.2.upf

LATTICE_CONSTANT
7.4984327225523  // add lattice constant

LATTICE_VECTORS
0.707106781187    0.000000000000    0.000000000000    
0.353553390593    0.612372435696    0.000000000000    
0.000000000000    0.000000000000    11.547005383792515 

ATOMIC_POSITIONS
Direct

Al
0.0
20
    2.8405276069E-31  2.8405276069E-31  1.9481946914E-04 1 1 1
    3.3333333330E-01  3.3333333330E-01  4.9886691538E-02 1 1 1
    6.6666666670E-01  6.6666666670E-01  9.9994504916E-02 1 1 1
    2.1035969163E-31  2.1322464651E-31  1.4991986064E-01 1 1 1
    3.3333333330E-01  3.3333333330E-01  1.9992975441E-01 1 1 1
    7.0000000000E-01  7.0000000000E-01  2.5011231495E-01 1 1 1
    3.3333333300E-02  3.3333333300E-02  3.0003406255E-01 1 1 1
    3.6666666670E-01  3.6666666670E-01  3.5012293511E-01 1 1 1
    7.0000000000E-01  7.0000000000E-01  3.9980772902E-01 1 1 1
    3.3333333300E-02  3.3333333300E-02  4.5000000000E-01 1 1 1
    7.0000000000E-01  7.0000000000E-01  5.0019227098E-01 1 1 1
    3.6666666670E-01  3.6666666670E-01  5.4987706489E-01 1 1 1
    3.3333333300E-02  3.3333333300E-02  5.9996593745E-01 1 1 1
    7.0000000000E-01  7.0000000000E-01  6.4988768505E-01 1 1 1
    3.3333333330E-01  3.3333333330E-01  7.0007024559E-01 1 1 1
    2.1346803204E-31  2.2492785157E-31  7.5008013936E-01 1 1 1
    6.6666666670E-01  6.6666666670E-01  8.0000549508E-01 1 1 1
    3.3333333330E-01  3.3333333330E-01  8.5011330846E-01 1 1 1
    2.7559771288E-31  2.7559771288E-31  8.9980518053E-01 1 1 1
    6.6666666670E-01  6.6666666670E-01  9.5000000000E-01 1 1 1
