ATOMIC_SPECIES
Al 26.981539 Al_ONCV_PBE-1.2.upf

LATTICE_CONSTANT
7.4984327225523  // add lattice constant

LATTICE_VECTORS
0.707106781187    0.000000000000    0.000000000000    
0.353553390593    0.612372435696    0.000000000000    
0.000000000000    0.000000000000    11.547005383792515 

ATOMIC_POSITIONS
Direct

Al
0.0
20
    1.6063639962E-30  1.6063639962E-30  1.6688078835E-04 1 1 1
    3.3333333330E-01  3.3333333330E-01  4.9824874304E-02 1 1 1
    6.6666666670E-01  6.6666666670E-01  9.9889016367E-02 1 1 1
    1.5420338149E-30  1.5420338149E-30  1.4976583261E-01 1 1 1
    3.3333333330E-01  3.3333333330E-01  1.9975132617E-01 1 1 1
    7.3333333330E-01  7.3333333330E-01  2.5030287447E-01 1 1 1
    6.6666666700E-02  6.6666666700E-02  3.0018512276E-01 1 1 1
    4.0000000000E-01  4.0000000000E-01  3.5022952556E-01 1 1 1
    7.3333333330E-01  7.3333333330E-01  3.9987644216E-01 1 1 1
    6.6666666700E-02  6.6666666700E-02  4.5000000000E-01 1 1 1
    7.3333333330E-01  7.3333333330E-01  5.0012355784E-01 1 1 1
    4.0000000000E-01  4.0000000000E-01  5.4977047444E-01 1 1 1
    6.6666666700E-02  6.6666666700E-02  5.9981487724E-01 1 1 1
    7.3333333330E-01  7.3333333330E-01  6.4969712553E-01 1 1 1
    3.3333333330E-01  3.3333333330E-01  7.0024867383E-01 1 1 1
    1.5420338149E-30  1.5420338149E-30  7.5023416739E-01 1 1 1
    6.6666666670E-01  6.6666666670E-01  8.0011098363E-01 1 1 1
    3.3333333330E-01  3.3333333330E-01  8.5017512570E-01 1 1 1
    1.6063639962E-30  1.6063639962E-30  8.9983311921E-01 1 1 1
    6.6666666670E-01  6.6666666670E-01  9.5000000000E-01 1 1 1
