ATOMIC_SPECIES
Si 14 si.gga.psp blps

LATTICE_CONSTANT
7.416901073485835  // add lattice constant

LATTICE_VECTORS
0.000000000000    0.500000000000    0.500000000000    
0.500000000000    0.000000000000    0.500000000000    
0.500000000000    0.500000000000    0.000000000000    

ATOMIC_POSITIONS
Direct

Si
0.0
1
    0.000000000000    0.000000000000    0.000000000000 1 1 1
