%BLOCK LATTICE_CART
   3.106426316849990   0.000074760526590   0.000000026243024
  -1.553148396791167   2.690281456054425  -0.000000038033437
   0.000000027678082  -0.000000020112341   5.070523504094149
%END BLOCK LATTICE_CART
%BLOCK POSITIONS_FRAC
    Mg   0.000000000000000   0.000000000000000   0.000000000000000
    Mg   0.666666666667000   0.333333333333000   0.500000000000000
%END BLOCK POSITIONS_FRAC
%BLOCK SPECIES_POT
    Mg mg.lda.recpot                                                                          
%END BLOCK SPECIES_POT
