%BLOCK LATTICE_CART
   2.812387583300000   0.000000000000000   0.000000000000000
   1.406193791650000   2.435599092425724   0.000000000000000
   0.000000000000003   0.000000000000002  50.602686099899543
%END BLOCK LATTICE_CART
%BLOCK POSITIONS_FRAC
    Al   0.000000000000000   0.000000000000000   0.000155895519115
    Al   0.333333333300000   0.333333333300000   0.045455047295327
    Al   0.666666666700000   0.666666666700000   0.090788229102636
    Al   0.000000000000000   0.000000000000000   0.136058418171735
    Al   0.333333333300000   0.333333333300000   0.181640776887330
    Al   0.000000000000000   0.000000000000000   0.227137145392649
    Al   0.633333333300000   0.633333333300000   0.272938385013903
    Al   0.966666666700000   0.966666666700000   0.318461330260922
    Al   0.300000000000000   0.300000000000000   0.363742796205119
    Al   0.633333333300000   0.633333333300000   0.409008400201823
    Al   0.966666666700000   0.966666666700000   0.454545840969347
    Al   0.633333333300000   0.633333333300000   0.500083273784250
    Al   0.300000000000000   0.300000000000000   0.545348817471483
    Al   0.966666666700000   0.966666666700000   0.590630182755063
    Al   0.633333333300000   0.633333333300000   0.636152969236099
    Al   0.000000000000000   0.000000000000000   0.681953991167201
    Al   0.333333333300000   0.333333333300000   0.727450118307829
    Al   0.000000000000000   0.000000000000000   0.773032199433729
    Al   0.666666666700000   0.666666666700000   0.818302118177969
    Al   0.333333333300000   0.333333333300000   0.863635065840762
    Al   0.000000000000000   0.000000000000000   0.908934059537354
    Al   0.666666666700000   0.666666666700000   0.954544949917037
%END BLOCK POSITIONS_FRAC
%BLOCK SPECIES_POT
    Al al.lda.recpot                                                                          
%END BLOCK SPECIES_POT
%BLOCK ION_OPTIMIZATION
           0           0           1
           0           0           1
           0           0           1
           0           0           1
           0           0           1
           0           0           1
           0           0           1
           0           0           1
           0           0           1
           0           0           1
           0           0           1
           0           0           1
           0           0           1
           0           0           1
           0           0           1
           0           0           1
           0           0           1
           0           0           1
           0           0           1
           0           0           1
           0           0           1
           0           0           1
%END BLOCK ION_OPTIMIZATION
