ATOMIC_SPECIES
N 14 /home/mhchen_pkuhpc/mhchen_cls/lustre2/5_liurenxi/03a01_abacus-lcao-scan/pp/SG15_ONCV_v1.0_upf/N_ONCV_PBE-1.0.upf
H 1 /home/mhchen_pkuhpc/mhchen_cls/lustre2/5_liurenxi/03a01_abacus-lcao-scan/pp/SG15_ONCV_v1.0_upf/H_ONCV_PBE-1.0.upf
C_empty 12 /home/mhchen_pkuhpc/mhchen_cls/lustre2/5_liurenxi/03a01_abacus-lcao-scan/pp/SG15_ONCV_v1.0_upf/C_ONCV_PBE-1.0.upf
H_empty 1 /home/mhchen_pkuhpc/mhchen_cls/lustre2/5_liurenxi/03a01_abacus-lcao-scan/pp/SG15_ONCV_v1.0_upf/H_ONCV_PBE-1.0.upf

LATTICE_CONSTANT
1.8897161646321

LATTICE_VECTORS
20 0 0
0 20 0
0 0 20

NUMERICAL_ORBITAL
/home/mhchen_pkuhpc/mhchen_cls/lustre2/5_liurenxi/03a01_abacus-lcao-scan/orb/Orb_DZP_E100_Full/N/N_gga_10au_100Ry_2s2p1d.orb
/home/mhchen_pkuhpc/mhchen_cls/lustre2/5_liurenxi/03a01_abacus-lcao-scan/orb/Orb_DZP_E100_Full/H/H_gga_10au_100Ry_2s1p.orb
/home/mhchen_pkuhpc/mhchen_cls/lustre2/5_liurenxi/03a01_abacus-lcao-scan/orb/Orb_DZP_E100_Full/C/C_gga_10au_100Ry_2s2p1d.orb
/home/mhchen_pkuhpc/mhchen_cls/lustre2/5_liurenxi/03a01_abacus-lcao-scan/orb/Orb_DZP_E100_Full/H/H_gga_10au_100Ry_2s1p.orb

ATOMIC_POSITIONS
Cartesian    # Cartesian(Unit is LATTICE_CONSTANT)
N
0.0
1
0.180393 -2.949123 0.000000 m 0 0 0 
H
0.0
3
0.759549 -3.145948 -0.806073 m 0 0 0 
0.759549 -3.145948 0.806073 m 0 0 0 
0.044417 -1.944940 0.000000 m 0 0 0 
C_empty
0.0
6
-0.739281 0.515879 -1.207108 m 0 0 0 
-1.426144 0.396545 0.000000 m 0 0 0 
-0.739281 0.515879 1.207108 m 0 0 0 
0.634227 0.754640 1.207073 m 0 0 0 
1.321043 0.873757 0.000000 m 0 0 0 
0.634227 0.754640 -1.207073 m 0 0 0 
H_empty
0.0
6
-1.271950 0.420632 -2.143289 m 0 0 0 
-2.490220 0.205238 0.000000 m 0 0 0 
-1.271950 0.420632 2.143289 m 0 0 0 
1.166800 0.847488 2.143695 m 0 0 0 
2.386359 1.059631 0.000000 m 0 0 0 
1.166800 0.847488 -2.143695 m 0 0 0 
