ATOMIC_SPECIES
Si 3 si.gga.psp blps

LATTICE_CONSTANT
7.365519487781297  // add lattice constant

LATTICE_VECTORS
1.000000000000    0.000000000000    0.000000000000    
-0.500000000000    0.866025403784    0.000000000000    
0.000000000000    0.000000000000    1.656000000000    

ATOMIC_POSITIONS
Direct

Si
0.0
4
    0.333333333333    0.666666666667    0.063100000000 1 1 1
    0.666666666667    0.333333333333    0.563100000000 1 1 1
    0.333333333333    0.666666666667    0.436900000000 1 1 1
    0.666666666667    0.333333333333    0.936900000000 1 1 1
