ATOMIC_SPECIES
Al 26.981539 Al_ONCV_PBE-1.2.upf

LATTICE_CONSTANT
7.4984327225523  // add lattice constant

LATTICE_VECTORS
0.707106781187    0.000000000000    0.000000000000    
0.353553390593    0.612372435696    0.000000000000    
0.000000000000    0.000000000000    11.547005383792515 

ATOMIC_POSITIONS
Direct

Al
0.0
20
    2.2099694437E-30  2.2099694437E-30  1.0634727466E-04 1 1 1
    3.3333333330E-01  3.3333333330E-01  4.9720078738E-02 1 1 1
    6.6666666670E-01  6.6666666670E-01  9.9722999549E-02 1 1 1
    2.1463724331E-30  2.1461480898E-30  1.4951415300E-01 1 1 1
    3.3333333330E-01  3.3333333330E-01  1.9940455667E-01 1 1 1
    8.0000000000E-01  8.0000000000E-01  2.5065229736E-01 1 1 1
    1.3333333330E-01  1.3333333330E-01  3.0046520666E-01 1 1 1
    4.6666666670E-01  4.6666666670E-01  3.5038457310E-01 1 1 1
    8.0000000000E-01  8.0000000000E-01  3.9996760380E-01 1 1 1
    1.3333333330E-01  1.3333333330E-01  4.5000000000E-01 1 1 1
    8.0000000000E-01  8.0000000000E-01  5.0003239620E-01 1 1 1
    4.6666666670E-01  4.6666666670E-01  5.4961542690E-01 1 1 1
    1.3333333330E-01  1.3333333330E-01  5.9953479334E-01 1 1 1
    8.0000000000E-01  8.0000000000E-01  6.4934770264E-01 1 1 1
    3.3333333330E-01  3.3333333330E-01  7.0059544333E-01 1 1 1
    2.1461290313E-30  2.1452316581E-30  7.5048584700E-01 1 1 1
    6.6666666670E-01  6.6666666670E-01  8.0027700045E-01 1 1 1
    3.3333333330E-01  3.3333333330E-01  8.5027992126E-01 1 1 1
    2.2106315251E-30  2.2106315251E-30  8.9989365273E-01 1 1 1
    6.6666666670E-01  6.6666666670E-01  9.5000000000E-01 1 1 1
