%BLOCK LATTICE_CART
   2.785119493572171  -0.000012638267797  -0.000000118734879
  -1.392570711444902   2.411977948574871   0.000000073252793
  -0.000000094614215   0.000000038198054   4.677676738262163
%END BLOCK LATTICE_CART
%BLOCK POSITIONS_FRAC
    Al   0.000000000000000   0.000000000000000   0.000000000000000
    Al   0.666666666667000   0.333333333333000   0.500000000000000
%END BLOCK POSITIONS_FRAC
%BLOCK SPECIES_POT
    Al al.lda.recpot                                                                          
%END BLOCK SPECIES_POT
