%BLOCK LATTICE_CART
   2.828739581100000   0.000000000000000   0.000000000000000
   1.414369790550000   2.449760337923151   0.000000000000000
   0.000000000000003   0.000000000000002  50.954666587633312
%END BLOCK LATTICE_CART
%BLOCK POSITIONS_FRAC
    Al   0.000000000000000   0.000000000000000   0.999868780203885
    Al   0.333333333300000   0.333333333300000   0.045211204832030
    Al   0.666666666700000   0.666666666700000   0.090561804506630
    Al   0.000000000000000   0.000000000000000   0.135910948133619
    Al   0.333333333300000   0.333333333300000   0.181236582052689
    Al   0.000000000000000   0.000000000000000   0.226429025787168
    Al   0.533333333300000   0.533333333300000   0.273332175428665
    Al   0.866666666700000   0.866666666700000   0.318552956972738
    Al   0.200000000000000   0.200000000000000   0.363896609016758
    Al   0.533333333300000   0.533333333300000   0.409235273034178
    Al   0.866666666700000   0.866666666700000   0.454546831229722
    Al   0.533333333300000   0.533333333300000   0.499858311382175
    Al   0.200000000000000   0.200000000000000   0.545196723845067
    Al   0.866666666700000   0.866666666700000   0.590539961647000
    Al   0.533333333300000   0.533333333300000   0.635760129460586
    Al   0.000000000000000   0.000000000000000   0.682662500611577
    Al   0.333333333300000   0.333333333300000   0.727854152133316
    Al   1.000000000000000   1.000000000000000   0.773179008514469
    Al   0.666666666700000   0.666666666700000   0.818527426914566
    Al   0.333333333300000   0.333333333300000   0.863877435954324
    Al   1.000000000000000   1.000000000000000   0.909219464698390
    Al   0.666666666700000   0.666666666700000   0.954544048497256
%END BLOCK POSITIONS_FRAC
%BLOCK SPECIES_POT
    Al al.lda.recpot                                                                          
%END BLOCK SPECIES_POT
%BLOCK ION_OPTIMIZATION
           0           0           1
           0           0           1
           0           0           1
           0           0           1
           0           0           1
           0           0           1
           0           0           1
           0           0           1
           0           0           1
           0           0           1
           0           0           1
           0           0           1
           0           0           1
           0           0           1
           0           0           1
           0           0           1
           0           0           1
           0           0           1
           0           0           1
           0           0           1
           0           0           1
           0           0           1
%END BLOCK ION_OPTIMIZATION
