ATOMIC_SPECIES
Al 27 al.lda.lps

LATTICE_CONSTANT
7.50241114482

LATTICE_VECTORS
0.707106781187 0 0 #latvec1
0.353553390593 0.612372435696 0 #latvec2
0 0 12.7017059222 #latvec3

ATOMIC_POSITIONS
Direct

Al #label
0 #magnetism
22 #number of atoms
0 0 0.000157102783035 0 0 1 0 0 0
0.333333333332 0.333333333332 0.0453381699412 0 0 1 0 0 0
0.666666666668 0.666666666668 0.0910514145145 0 0 1 0 0 0
0 0 0.13624727372 0 0 1 0 0 0
0.333333333332 0.333333333332 0.18184987719 0 0 1 0 0 0
0 0 0.226872140712 0 0 1 0 0 0
0.533333333333 0.533333333333 0.273094366858 0 0 1 0 0 0
0.866666666667 0.866666666667 0.318228428396 0 0 1 0 0 0
0.200000000001 0.200000000001 0.363599525138 0 0 1 0 0 0
0.533333333333 0.533333333333 0.409006006933 0 0 1 0 0 0
0.866666666667 0.866666666667 0.454519108754 0 0 1 0 0 0
0.533333333333 0.533333333333 0.500034971724 0 0 1 0 0 0
0.200000000001 0.200000000001 0.545448134477 0 0 1 0 0 0
0.866666666667 0.866666666667 0.590828764056 0 0 1 0 0 0
0.533333333333 0.533333333333 0.635975195574 0 0 1 0 0 0
0 0 0.682212712469 0 0 1 0 0 0
0.333333333332 0.333333333332 0.727249233926 0 0 1 0 0 0
0 0 0.772865695654 0 0 1 0 0 0
0.666666666668 0.666666666668 0.818073074593 0 0 1 0 0 0
0.333333333332 0.333333333332 0.863795981375 0 0 1 0 0 0
0 0 0.908982201266 0 0 1 0 0 0
0.666666666668 0.666666666668 0.954570619946 0 0 1 0 0 0
