%BLOCK LATTICE_CART
  -0.000472847527780   1.999335064962011   1.999335036103739
   1.999334971515206  -0.000472915507992   1.999335010954409
   1.999334973524691   1.999335041822167  -0.000472886752362
%END BLOCK LATTICE_CART
%BLOCK POSITIONS_FRAC
    Al   0.000000000000000   0.000000000000000   0.000000000000000
%END BLOCK POSITIONS_FRAC
%BLOCK SPECIES_POT
    Al al.lda.recpot                                                                          
%END BLOCK SPECIES_POT
