%BLOCK LATTICE_CART
6.431820000000    0.000000000000    0.000000000000    
0.000000000000    6.431820000000    0.000000000000    
0.000000000000    0.000000000000    6.431820000000    
%END BLOCK LATTICE_CART
%BLOCK POSITIONS_FRAC
Mg    0.250000000000    0.250000000000    0.250000000000
Mg    0.250000000000    0.750000000000    0.750000000000
Mg    0.750000000000    0.250000000000    0.750000000000
Mg    0.750000000000    0.750000000000    0.250000000000
Al    0.000000000000    0.000000000000    0.000000000000
Al    0.000000000000    0.500000000000    0.500000000000
Al    0.500000000000    0.000000000000    0.500000000000
Al    0.500000000000    0.500000000000    0.000000000000
%END BLOCK POSITIONS_FRAC
%BLOCK SPECIES_POT
Mg mg.gga.recpot
Al al.gga.recpot
%END BLOCK SPECIES_POT
