%BLOCK LATTICE_CART
2.804339403772    0.000000000000    0.000000000000    
-1.402169701886    2.428629164501    0.000000000000    
0.000000000000    0.000000000000    4.602360878144    
%END BLOCK LATTICE_CART
%BLOCK POSITIONS_FRAC
Al    0.000000000000    0.000000000000    0.000000000000
Al    0.666666666667    0.333333333333    0.500000000000
%END BLOCK POSITIONS_FRAC
%BLOCK SPECIES_POT
Al al.lda.recpot
%END BLOCK SPECIES_POT
