%BLOCK LATTICE_CART
2.823641874154    0.000000000000    0.000000000000    
-1.411820937077    2.445345594207    0.000000000000    
0.000000000000    0.000000000000    4.645465608130    
%END BLOCK LATTICE_CART
%BLOCK POSITIONS_FRAC
Al    0.000000000000    0.000000000000    0.000000000000
Al    0.666666666667    0.333333333333    0.500000000000
%END BLOCK POSITIONS_FRAC
%BLOCK SPECIES_POT
Al al.lda.recpot
%END BLOCK SPECIES_POT
