%BLOCK LATTICE_CART
3.423915109811    0.000000000000    0.000000000000    
-1.711957554905    2.965197465497    0.000000000000    
0.000000000000    0.000000000000    5.599544569319    
%END BLOCK LATTICE_CART
%BLOCK POSITIONS_FRAC
Mg    0.000000000000    0.000000000000    0.000000000000
Mg    0.666666666667    0.333333333333    0.500000000000
%END BLOCK POSITIONS_FRAC
%BLOCK SPECIES_POT
Mg mg.gga.recpot
%END BLOCK SPECIES_POT
