ATOMIC_SPECIES
Al 27 al.lda.lps

LATTICE_CONSTANT
7.50241114482

LATTICE_VECTORS
0.707106781187 0 0 #latvec1
0.353553390593 0.612372435696 0 #latvec2
0 0 11.5470053838 #latvec3

ATOMIC_POSITIONS
Direct

Al #label
0 #magnetism
20 #number of atoms
0 0 0.000114392664886 0 0 1 0 0 0
0.333333333332 0.333333333332 0.0499105018879 0 0 1 0 0 0
0.666666666668 0.666666666668 0.100117495289 0 0 1 0 0 0
0 0 0.15001248026 0 0 1 0 0 0
0.333333333332 0.333333333332 0.199763294873 0 0 1 0 0 0
0.933333333332 0.933333333332 0.250326879952 0 0 1 0 0 0
0.266666666666 0.266666666666 0.300018625729 0 0 1 0 0 0
0.6 0.6 0.350043667694 0 0 1 0 0 0
0.933333333332 0.933333333332 0.399904984808 0 0 1 0 0 0
0.266666666666 0.266666666666 0.449995064933 0 0 1 0 0 0
0.933333333332 0.933333333332 0.500088838627 0 0 1 0 0 0
0.6 0.6 0.549955432069 0 0 1 0 0 0
0.266666666666 0.266666666666 0.599984339579 0 0 1 0 0 0
0.933333333332 0.933333333332 0.649680132077 0 0 1 0 0 0
0.333333333332 0.333333333332 0.700245816967 0 0 1 0 0 0
0 0 0.74999626641 0 0 1 0 0 0
0.666666666668 0.666666666668 0.799884196514 0 0 1 0 0 0
0.333333333332 0.333333333332 0.850085037948 0 0 1 0 0 0
0 0 0.899877661742 0 0 1 0 0 0
0.666666666668 0.666666666668 0.949994889976 0 0 1 0 0 0
