%BLOCK LATTICE_CART
   2.695258499441763  -0.000056991838704  -0.000097930185463
  -0.000056991825354   2.695259478388356  -0.000018218099355
  -0.000097930160970  -0.000018218098546   2.695259479134311
%END BLOCK LATTICE_CART
%BLOCK POSITIONS_FRAC
    Li   0.000000000000000   0.000000000000000   0.000000000000000
%END BLOCK POSITIONS_FRAC
%BLOCK SPECIES_POT
    Li li.lda.recpot                                                                          
%END BLOCK SPECIES_POT
