%BLOCK LATTICE_CART
2.009011050232    -3.479709211970    0.000000000000    
2.009011050232    3.479709211970    0.000000000000    
0.000000000000    0.000000000000    6.595100876000    
%END BLOCK LATTICE_CART
%BLOCK POSITIONS_FRAC
Al    0.333333333333    0.666666666667    0.000069000000
Al    0.666666666667    0.333333333333    0.500069000000
P    0.333333333333    0.666666666667    0.374931000000
P    0.666666666667    0.333333333333    0.874931000000
%END BLOCK POSITIONS_FRAC
%BLOCK SPECIES_POT
Al al.gga.recpot
P p.gga.recpot
%END BLOCK SPECIES_POT
