Transformation
0.529176965773
32.125341805842  0.000000000000  0.000000000000
0.000000000000  34.015067794421  0.000000000000
0.000000000000  0.000000000000  202.404240171708
C  
1000  
Direct
0.630644000000  0.515864000000  0.003632000000  
0.643271000000  0.449754000000  0.012530000000  
0.643211000000  0.451726000000  0.025886000000  
0.629531000000  0.518838000000  0.032993000000  
0.631150000000  0.514467000000  0.046533000000  
0.643339000000  0.444998000000  0.053145000000  
0.643339000000  0.444848000000  0.066629000000  
0.631993000000  0.512067000000  0.073290000000  
0.632027000000  0.511966000000  0.086660000000  
0.643340000000  0.444444000000  0.093333000000  
0.643340000000  0.444444000000  0.106667000000  
0.632005000000  0.512029000000  0.113333000000  
0.632005000000  0.512029000000  0.126667000000  
0.643340000000  0.444444000000  0.133333000000  
0.643340000000  0.444444000000  0.146667000000  
0.632005000000  0.512029000000  0.153333000000  
0.632005000000  0.512029000000  0.166667000000  
0.643340000000  0.444444000000  0.173333000000  
0.643340000000  0.444444000000  0.186667000000  
0.632005000000  0.512029000000  0.193333000000  
0.632054000000  0.511888000000  0.206658000000  
0.643339000000  0.444206000000  0.213331000000  
0.643338000000  0.445157000000  0.226514000000  
0.631320000000  0.513989000000  0.232909000000  
0.630014000000  0.517566000000  0.245199000000  
0.642603000000  0.461868000000  0.252895000000  
0.637204000000  0.494457000000  0.265509000000  
0.642442000000  0.463680000000  0.275321000000  
0.635356000000  0.501378000000  0.288394000000  
0.643327000000  0.446744000000  0.296370000000  
0.643290000000  0.448982000000  0.308612000000  
0.630638000000  0.515881000000  0.317069000000  
0.633511000000  0.507484000000  0.328635000000  
0.643334000000  0.442954000000  0.334338000000  
0.643323000000  0.441849000000  0.347114000000  
0.632156000000  0.511590000000  0.353822000000  
0.632042000000  0.511923000000  0.366721000000  
0.643340000000  0.444444000000  0.373333000000  
0.643340000000  0.444444000000  0.386667000000  
0.632005000000  0.512029000000  0.393333000000  
0.632005000000  0.512029000000  0.406667000000  
0.643340000000  0.444444000000  0.413333000000  
0.643340000000  0.444444000000  0.426667000000  
0.632005000000  0.512029000000  0.433333000000  
0.632048000000  0.511905000000  0.446692000000  
0.643339000000  0.444139000000  0.453390000000  
0.643339000000  0.444115000000  0.467009000000  
0.631980000000  0.512103000000  0.473930000000  
0.631958000000  0.512166000000  0.488400000000  
0.643339000000  0.444685000000  0.494681000000  
0.642999000000  0.432585000000  0.509062000000  
0.618502000000  0.542987000000  0.520180000000  
0.639925000000  0.481865000000  0.520141000000  
0.642984000000  0.432324000000  0.530926000000  
0.643337000000  0.443442000000  0.545242000000  
0.632069000000  0.511846000000  0.551683000000  
0.632464000000  0.510681000000  0.565964000000  
0.643316000000  0.441342000000  0.572669000000  
0.643306000000  0.440743000000  0.586187000000  
0.632326000000  0.511089000000  0.593207000000  
0.632190000000  0.511491000000  0.606631000000  
0.643339000000  0.444068000000  0.613293000000  
0.643339000000  0.444163000000  0.626647000000  
0.632005000000  0.512031000000  0.633278000000  
0.632026000000  0.511970000000  0.646583000000  
0.643339000000  0.444146000000  0.653299000000  
0.643339000000  0.444203000000  0.666728000000  
0.631835000000  0.512524000000  0.673092000000  
0.631043000000  0.514764000000  0.686264000000  
0.643326000000  0.446839000000  0.693139000000  
0.643331000000  0.446332000000  0.705894000000  
0.631369000000  0.513853000000  0.712959000000  
0.633139000000  0.508642000000  0.726471000000  
0.642759000000  0.428967000000  0.731521000000  
0.643206000000  0.437018000000  0.753426000000  
0.630988000000  0.514917000000  0.754343000000  
0.631267000000  0.514140000000  0.765418000000  
0.636880000000  0.393147000000  0.774604000000  
0.642116000000  0.421989000000  0.787354000000  
0.634195000000  0.505300000000  0.792987000000  
0.632690000000  0.510006000000  0.806077000000  
0.643331000000  0.446312000000  0.813028000000  
0.643208000000  0.451820000000  0.825066000000  
0.630064000000  0.517432000000  0.831413000000  
0.633349000000  0.507993000000  0.843529000000  
0.637295000000  0.394799000000  0.855241000000  
0.642605000000  0.427038000000  0.867845000000  
0.634237000000  0.505162000000  0.872987000000  
0.632810000000  0.509644000000  0.886847000000  
0.643321000000  0.441658000000  0.894136000000  
0.643335000000  0.443028000000  0.907835000000  
0.632833000000  0.509576000000  0.914066000000  
0.632280000000  0.511227000000  0.927381000000  
0.643315000000  0.441287000000  0.935186000000  
0.643333000000  0.446137000000  0.947844000000  
0.631864000000  0.512439000000  0.953667000000  
0.631600000000  0.513197000000  0.966671000000  
0.643339000000  0.444871000000  0.973691000000  
0.643340000000  0.444583000000  0.986492000000  
0.633850000000  0.506411000000  0.991880000000  
0.563607000000  0.609576000000  0.014970000000  
0.588062000000  0.586257000000  0.005414000000  
0.586824000000  0.587618000000  0.027667000000  
0.541987000000  0.625298000000  0.035085000000  
0.545149000000  0.623231000000  0.047172000000  
0.598224000000  0.574146000000  0.053531000000  
0.599124000000  0.572984000000  0.066695000000  
0.547920000000  0.621357000000  0.073376000000  
0.547881000000  0.621384000000  0.086667000000  
0.599113000000  0.572999000000  0.093333000000  
0.599113000000  0.572999000000  0.106667000000  
0.547881000000  0.621384000000  0.113333000000  
0.547881000000  0.621384000000  0.126667000000  
0.599113000000  0.572999000000  0.133333000000  
0.599113000000  0.572999000000  0.146667000000  
0.547881000000  0.621384000000  0.153333000000  
0.547881000000  0.621384000000  0.166667000000  
0.599113000000  0.572999000000  0.173333000000  
0.599100000000  0.573015000000  0.186669000000  
0.547881000000  0.621384000000  0.193333000000  
0.547900000000  0.621371000000  0.206664000000  
0.599029000000  0.573107000000  0.213335000000  
0.598891000000  0.573286000000  0.226244000000  
0.546460000000  0.622351000000  0.233029000000  
0.547070000000  0.621938000000  0.245935000000  
0.596191000000  0.576713000000  0.251661000000  
0.601684000000  0.569589000000  0.263439000000  
0.551922000000  0.618547000000  0.271831000000  
0.550321000000  0.619687000000  0.284201000000  
0.592031000000  0.581734000000  0.291968000000  
0.564094000000  0.609176000000  0.304989000000  
0.587680000000  0.586678000000  0.314931000000  
0.563214000000  0.609898000000  0.327421000000  
0.603100000000  0.567648000000  0.335015000000  
0.600703000000  0.570906000000  0.347189000000  
0.548853000000  0.620714000000  0.353539000000  
0.547916000000  0.621360000000  0.366722000000  
0.599154000000  0.572945000000  0.373397000000  
0.599189000000  0.572900000000  0.386648000000  
0.548415000000  0.621017000000  0.393223000000  
0.548203000000  0.621163000000  0.406611000000  
0.599113000000  0.572999000000  0.413333000000  
0.599113000000  0.572999000000  0.426667000000  
0.547070000000  0.621938000000  0.433358000000  
0.546721000000  0.622175000000  0.446529000000  
0.599081000000  0.573039000000  0.453391000000  
0.598850000000  0.573340000000  0.467043000000  
0.547977000000  0.621318000000  0.473514000000  
0.546576000000  0.622273000000  0.487212000000  
0.597898000000  0.574563000000  0.494819000000  
0.589911000000  0.584180000000  0.509238000000  
0.538056000000  0.627768000000  0.513693000000  
0.537482000000  0.628119000000  0.526799000000  
0.589920000000  0.584170000000  0.531226000000  
0.598320000000  0.574022000000  0.545430000000  
0.547845000000  0.621409000000  0.552887000000  
0.548967000000  0.620634000000  0.566437000000  
0.599402000000  0.572621000000  0.572872000000  
0.599615000000  0.572344000000  0.586525000000  
0.547881000000  0.621384000000  0.593333000000  
0.547881000000  0.621384000000  0.606667000000  
0.599113000000  0.572999000000  0.613333000000  
0.599118000000  0.572991000000  0.626571000000  
0.547836000000  0.621415000000  0.633204000000  
0.548038000000  0.621276000000  0.646248000000  
0.600016000000  0.571816000000  0.653054000000  
0.599395000000  0.572631000000  0.665955000000  
0.550171000000  0.619792000000  0.671674000000  
0.541155000000  0.625830000000  0.683640000000  
0.594454000000  0.578846000000  0.692560000000  
0.593579000000  0.579901000000  0.706063000000  
0.542304000000  0.625094000000  0.713266000000  
0.548014000000  0.621293000000  0.726916000000  
0.602358000000  0.568670000000  0.733594000000  
0.601552000000  0.569766000000  0.746704000000  
0.548590000000  0.620896000000  0.753245000000  
0.548480000000  0.620972000000  0.766812000000  
0.601678000000  0.569597000000  0.773322000000  
0.603241000000  0.567454000000  0.786059000000  
0.548834000000  0.620726000000  0.793260000000  
0.548044000000  0.621272000000  0.806430000000  
0.597890000000  0.574573000000  0.812864000000  
0.598125000000  0.574273000000  0.825880000000  
0.547018000000  0.621974000000  0.832993000000  
0.548869000000  0.620703000000  0.846317000000  
0.602289000000  0.568765000000  0.852488000000  
0.603907000000  0.566524000000  0.865992000000  
0.550264000000  0.619727000000  0.873212000000  
0.549760000000  0.620081000000  0.886590000000  
0.599980000000  0.571864000000  0.893330000000  
0.599557000000  0.572419000000  0.906897000000  
0.547973000000  0.621321000000  0.913407000000  
0.547881000000  0.621384000000  0.926667000000  
0.599542000000  0.572438000000  0.933641000000  
0.598759000000  0.573457000000  0.946728000000  
0.547792000000  0.621445000000  0.953211000000  
0.548861000000  0.620708000000  0.966487000000  
0.600873000000  0.570679000000  0.972942000000  
0.603285000000  0.567392000000  0.985266000000  
0.564205000000  0.609084000000  0.992603000000  
0.418355000000  0.663065000000  0.007506000000  
0.488355000000  0.650846000000  0.016608000000  
0.477778000000  0.654079000000  0.028447000000  
0.409479000000  0.663143000000  0.033940000000  
0.409131000000  0.663140000000  0.046960000000  
0.482604000000  0.652670000000  0.053767000000  
0.483038000000  0.652538000000  0.066740000000  
0.411741000000  0.663154000000  0.073401000000  
0.411765000000  0.663154000000  0.086667000000  
0.483325000000  0.652450000000  0.093333000000  
0.483325000000  0.652450000000  0.106667000000  
0.411765000000  0.663154000000  0.113333000000  
0.411765000000  0.663154000000  0.126667000000  
0.483325000000  0.652450000000  0.133333000000  
0.483325000000  0.652450000000  0.146667000000  
0.411765000000  0.663154000000  0.153333000000  
0.411765000000  0.663154000000  0.166667000000  
0.483325000000  0.652450000000  0.173333000000  
0.483325000000  0.652450000000  0.186667000000  
0.411765000000  0.663154000000  0.193333000000  
0.411734000000  0.663154000000  0.206674000000  
0.483013000000  0.652545000000  0.213317000000  
0.483013000000  0.652545000000  0.226544000000  
0.411787000000  0.663154000000  0.233215000000  
0.412601000000  0.663153000000  0.246409000000  
0.484541000000  0.652073000000  0.252841000000  
0.486571000000  0.651428000000  0.265630000000  
0.413644000000  0.663147000000  0.272493000000  
0.412535000000  0.663153000000  0.285276000000  
0.481139000000  0.653109000000  0.291154000000  
0.489496000000  0.650465000000  0.302856000000  
0.416229000000  0.663113000000  0.311928000000  
0.419117000000  0.663044000000  0.325548000000  
0.490179000000  0.650234000000  0.332655000000  
0.485390000000  0.651806000000  0.346510000000  
0.410212000000  0.663149000000  0.353181000000  
0.408781000000  0.663136000000  0.366696000000  
0.482704000000  0.652639000000  0.373470000000  
0.483274000000  0.652466000000  0.386520000000  
0.412403000000  0.663153000000  0.393290000000  
0.413993000000  0.663144000000  0.406406000000  
0.484015000000  0.652237000000  0.413130000000  
0.482008000000  0.652850000000  0.426520000000  
0.405456000000  0.663073000000  0.432816000000  
0.403169000000  0.663003000000  0.445928000000  
0.481057000000  0.653134000000  0.453156000000  
0.481638000000  0.652961000000  0.466530000000  
0.411756000000  0.663154000000  0.473100000000  
0.411337000000  0.663154000000  0.486670000000  
0.481508000000  0.652999000000  0.493488000000  
0.479178000000  0.653682000000  0.506946000000  
0.408777000000  0.663136000000  0.513252000000  
0.408629000000  0.663134000000  0.526962000000  
0.479685000000  0.653535000000  0.533334000000  
0.482395000000  0.652733000000  0.546533000000  
0.411706000000  0.663154000000  0.553362000000  
0.412025000000  0.663154000000  0.566670000000  
0.483507000000  0.652394000000  0.573348000000  
0.483472000000  0.652404000000  0.586682000000  
0.411765000000  0.663154000000  0.593333000000  
0.411765000000  0.663154000000  0.606667000000  
0.483325000000  0.652450000000  0.613333000000  
0.483419000000  0.652421000000  0.626618000000  
0.412058000000  0.663154000000  0.633357000000  
0.413027000000  0.663151000000  0.646610000000  
0.484591000000  0.652057000000  0.652921000000  
0.487713000000  0.651057000000  0.665275000000  
0.424426000000  0.662827000000  0.673156000000  
0.425806000000  0.662752000000  0.696135000000  
0.458268000000  0.658699000000  0.685751000000  
0.464578000000  0.657390000000  0.708516000000  
0.407146000000  0.663110000000  0.716479000000  
0.412666000000  0.663152000000  0.728173000000  
0.484113000000  0.652207000000  0.734158000000  
0.485370000000  0.651812000000  0.746744000000  
0.412252000000  0.663154000000  0.753599000000  
0.412030000000  0.663154000000  0.766781000000  
0.483968000000  0.652251000000  0.773517000000  
0.483961000000  0.652253000000  0.786540000000  
0.411558000000  0.663154000000  0.793287000000  
0.411633000000  0.663154000000  0.806685000000  
0.482699000000  0.652641000000  0.813258000000  
0.483034000000  0.652539000000  0.826619000000  
0.411765000000  0.663154000000  0.833333000000  
0.411537000000  0.663154000000  0.846695000000  
0.483750000000  0.652319000000  0.853361000000  
0.484163000000  0.652191000000  0.866526000000  
0.411765000000  0.663154000000  0.873333000000  
0.411765000000  0.663154000000  0.886667000000  
0.483647000000  0.652351000000  0.893347000000  
0.483325000000  0.652450000000  0.906667000000  
0.411765000000  0.663154000000  0.913333000000  
0.411765000000  0.663154000000  0.926667000000  
0.483325000000  0.652450000000  0.933333000000  
0.483440000000  0.652414000000  0.946619000000  
0.411909000000  0.663154000000  0.953345000000  
0.412463000000  0.663153000000  0.966841000000  
0.485967000000  0.651622000000  0.973424000000  
0.490823000000  0.650014000000  0.987182000000  
0.421261000000  0.662970000000  0.994188000000  
0.276061000000  0.621667000000  0.006592000000  
0.341288000000  0.652780000000  0.013599000000  
0.339237000000  0.652151000000  0.026968000000  
0.275262000000  0.621119000000  0.033352000000  
0.275237000000  0.621101000000  0.046702000000  
0.339596000000  0.652262000000  0.053383000000  
0.339725000000  0.652302000000  0.066673000000  
0.275648000000  0.621384000000  0.073333000000  
0.275648000000  0.621384000000  0.086667000000  
0.340204000000  0.652450000000  0.093333000000  
0.340204000000  0.652450000000  0.106667000000  
0.275648000000  0.621384000000  0.113333000000  
0.275648000000  0.621384000000  0.126667000000  
0.340204000000  0.652450000000  0.133333000000  
0.340204000000  0.652450000000  0.146667000000  
0.275648000000  0.621384000000  0.153333000000  
0.275648000000  0.621384000000  0.166667000000  
0.340204000000  0.652450000000  0.173333000000  
0.340204000000  0.652450000000  0.186667000000  
0.275648000000  0.621384000000  0.193333000000  
0.275539000000  0.621309000000  0.206696000000  
0.340075000000  0.652410000000  0.213369000000  
0.340171000000  0.652439000000  0.226674000000  
0.276726000000  0.622119000000  0.233276000000  
0.278091000000  0.623037000000  0.246245000000  
0.344088000000  0.653606000000  0.252846000000  
0.344662000000  0.653771000000  0.265826000000  
0.282608000000  0.625978000000  0.271603000000  
0.273697000000  0.620031000000  0.283446000000  
0.335775000000  0.651044000000  0.292055000000  
0.335471000000  0.650944000000  0.305326000000  
0.270593000000  0.617815000000  0.312981000000  
0.274968000000  0.620916000000  0.326401000000  
0.341595000000  0.652872000000  0.332873000000  
0.341256000000  0.652770000000  0.346609000000  
0.273672000000  0.620013000000  0.353340000000  
0.269647000000  0.617124000000  0.366998000000  
0.331944000000  0.649751000000  0.373929000000  
0.334909000000  0.650758000000  0.387022000000  
0.273850000000  0.620138000000  0.396154000000  
0.285642000000  0.627871000000  0.407085000000  
0.346756000000  0.654359000000  0.412444000000  
0.337449000000  0.651586000000  0.424332000000  
0.261088000000  0.610526000000  0.426202000000  
0.260013000000  0.609650000000  0.447898000000  
0.332622000000  0.649985000000  0.453037000000  
0.337989000000  0.651758000000  0.466522000000  
0.274498000000  0.620590000000  0.473709000000  
0.275780000000  0.621475000000  0.486710000000  
0.339951000000  0.652372000000  0.493315000000  
0.339382000000  0.652196000000  0.506695000000  
0.275648000000  0.621384000000  0.513333000000  
0.275648000000  0.621384000000  0.526667000000  
0.339979000000  0.652380000000  0.533377000000  
0.340000000000  0.652387000000  0.546703000000  
0.275648000000  0.621384000000  0.553333000000  
0.275648000000  0.621384000000  0.566667000000  
0.340204000000  0.652450000000  0.573333000000  
0.340204000000  0.652450000000  0.586667000000  
0.275648000000  0.621384000000  0.593333000000  
0.275648000000  0.621384000000  0.606667000000  
0.340229000000  0.652457000000  0.613334000000  
0.340248000000  0.652463000000  0.626695000000  
0.275831000000  0.621509000000  0.633349000000  
0.275354000000  0.621182000000  0.646794000000  
0.340420000000  0.652516000000  0.653592000000  
0.340604000000  0.652572000000  0.667304000000  
0.265919000000  0.614329000000  0.673253000000  
0.241169000000  0.592346000000  0.685813000000  
0.341243000000  0.652766000000  0.700238000000  
0.341523000000  0.652850000000  0.711251000000  
0.281709000000  0.625404000000  0.716640000000  
0.277223000000  0.622455000000  0.728078000000  
0.341207000000  0.652755000000  0.734972000000  
0.341076000000  0.652715000000  0.747140000000  
0.276165000000  0.621737000000  0.753691000000  
0.275655000000  0.621388000000  0.766709000000  
0.340337000000  0.652490000000  0.773415000000  
0.340204000000  0.652450000000  0.786667000000  
0.275846000000  0.621519000000  0.793193000000  
0.275450000000  0.621248000000  0.806504000000  
0.340204000000  0.652450000000  0.813333000000  
0.340128000000  0.652426000000  0.826648000000  
0.274168000000  0.620360000000  0.833270000000  
0.273418000000  0.619834000000  0.846395000000  
0.339495000000  0.652231000000  0.853292000000  
0.339599000000  0.652263000000  0.866665000000  
0.275598000000  0.621349000000  0.873262000000  
0.275648000000  0.621384000000  0.886667000000  
0.340204000000  0.652450000000  0.893333000000  
0.340204000000  0.652450000000  0.906667000000  
0.275648000000  0.621384000000  0.913333000000  
0.275648000000  0.621384000000  0.926667000000  
0.340204000000  0.652450000000  0.933333000000  
0.340204000000  0.652450000000  0.946667000000  
0.275648000000  0.621384000000  0.953333000000  
0.275611000000  0.621359000000  0.966666000000  
0.341937000000  0.652974000000  0.973508000000  
0.342894000000  0.653258000000  0.986849000000  
0.276695000000  0.622098000000  0.993508000000  
0.190774000000  0.509809000000  0.006412000000  
0.224004000000  0.572460000000  0.013215000000  
0.223979000000  0.572428000000  0.026571000000  
0.191369000000  0.511578000000  0.033212000000  
0.191434000000  0.511769000000  0.046642000000  
0.224390000000  0.572963000000  0.053348000000  
0.224417000000  0.572999000000  0.066667000000  
0.191524000000  0.512029000000  0.073333000000  
0.191524000000  0.512029000000  0.086667000000  
0.224417000000  0.572999000000  0.093333000000  
0.224417000000  0.572999000000  0.106667000000  
0.191524000000  0.512029000000  0.113333000000  
0.191524000000  0.512029000000  0.126667000000  
0.224417000000  0.572999000000  0.133333000000  
0.224417000000  0.572999000000  0.146667000000  
0.191524000000  0.512029000000  0.153333000000  
0.191524000000  0.512029000000  0.166667000000  
0.224417000000  0.572999000000  0.173333000000  
0.224417000000  0.572999000000  0.186667000000  
0.191479000000  0.511899000000  0.193306000000  
0.191560000000  0.512134000000  0.206743000000  
0.224614000000  0.573255000000  0.213331000000  
0.225030000000  0.573792000000  0.226722000000  
0.193123000000  0.516511000000  0.233490000000  
0.194610000000  0.520416000000  0.246871000000  
0.229900000000  0.579841000000  0.252861000000  
0.232752000000  0.583188000000  0.265409000000  
0.201315000000  0.535709000000  0.272768000000  
0.198352000000  0.529349000000  0.294911000000  
0.215682000000  0.560801000000  0.285165000000  
0.213029000000  0.556714000000  0.307751000000  
0.189325000000  0.505266000000  0.315098000000  
0.190438000000  0.508788000000  0.327154000000  
0.223773000000  0.572157000000  0.333497000000  
0.223681000000  0.572037000000  0.346476000000  
0.190677000000  0.509517000000  0.352900000000  
0.189587000000  0.506114000000  0.365204000000  
0.212972000000  0.556624000000  0.372512000000  
0.197621000000  0.527691000000  0.385617000000  
0.214281000000  0.558668000000  0.395117000000  
0.200626000000  0.534277000000  0.408568000000  
0.240859000000  0.592026000000  0.414745000000  
0.236223000000  0.587090000000  0.435573000000  
0.193039000000  0.516285000000  0.437513000000  
0.190252000000  0.508213000000  0.449286000000  
0.220106000000  0.567200000000  0.455462000000  
0.222745000000  0.570798000000  0.467542000000  
0.191328000000  0.511458000000  0.474335000000  
0.191610000000  0.512279000000  0.486817000000  
0.224577000000  0.573207000000  0.493394000000  
0.224417000000  0.572999000000  0.506667000000  
0.191622000000  0.512313000000  0.513309000000  
0.191657000000  0.512416000000  0.526681000000  
0.224417000000  0.572999000000  0.533333000000  
0.224417000000  0.572999000000  0.546667000000  
0.191522000000  0.512023000000  0.553308000000  
0.191545000000  0.512092000000  0.566652000000  
0.224417000000  0.572999000000  0.573333000000  
0.224417000000  0.572999000000  0.586667000000  
0.191524000000  0.512029000000  0.593333000000  
0.191524000000  0.512029000000  0.606667000000  
0.224417000000  0.572999000000  0.613333000000  
0.224417000000  0.572999000000  0.626667000000  
0.191434000000  0.511768000000  0.633336000000  
0.191384000000  0.511621000000  0.646452000000  
0.223751000000  0.572129000000  0.653160000000  
0.221922000000  0.569692000000  0.665421000000  
0.190898000000  0.510181000000  0.671885000000  
0.194258000000  0.519514000000  0.683750000000  
0.265406000000  0.613935000000  0.696191000000  
0.237688000000  0.588683000000  0.708372000000  
0.194520000000  0.520185000000  0.713278000000  
0.192562000000  0.514976000000  0.726871000000  
0.225552000000  0.574461000000  0.734019000000  
0.224483000000  0.573085000000  0.746811000000  
0.191635000000  0.512350000000  0.753256000000  
0.191462000000  0.511850000000  0.766291000000  
0.224548000000  0.573169000000  0.773201000000  
0.224141000000  0.572640000000  0.786332000000  
0.191915000000  0.513156000000  0.792571000000  
0.191216000000  0.511127000000  0.805320000000  
0.224165000000  0.572671000000  0.812759000000  
0.222274000000  0.570166000000  0.825988000000  
0.189312000000  0.505226000000  0.831825000000  
0.188602000000  0.502859000000  0.845521000000  
0.222488000000  0.570453000000  0.852951000000  
0.222773000000  0.570834000000  0.866291000000  
0.190941000000  0.510311000000  0.872911000000  
0.191054000000  0.510648000000  0.886393000000  
0.224414000000  0.572995000000  0.893276000000  
0.224417000000  0.572999000000  0.906667000000  
0.191479000000  0.511899000000  0.913325000000  
0.191524000000  0.512029000000  0.926667000000  
0.224417000000  0.572999000000  0.933333000000  
0.224417000000  0.572999000000  0.946667000000  
0.191646000000  0.512384000000  0.953322000000  
0.191546000000  0.512092000000  0.966585000000  
0.224382000000  0.572953000000  0.973312000000  
0.224417000000  0.572999000000  0.986667000000  
0.191001000000  0.510490000000  0.993311000000  
0.194747000000  0.368125000000  0.005753000000  
0.180210000000  0.441526000000  0.012963000000  
0.180201000000  0.442283000000  0.026461000000  
0.191804000000  0.376052000000  0.033030000000  
0.191575000000  0.376712000000  0.046613000000  
0.180190000000  0.444444000000  0.053333000000  
0.180190000000  0.444444000000  0.066667000000  
0.191524000000  0.376859000000  0.073333000000  
0.191524000000  0.376859000000  0.086667000000  
0.180190000000  0.444444000000  0.093333000000  
0.180190000000  0.444444000000  0.106667000000  
0.191524000000  0.376859000000  0.113333000000  
0.191524000000  0.376859000000  0.126667000000  
0.180190000000  0.444444000000  0.133333000000  
0.180190000000  0.444444000000  0.146667000000  
0.191524000000  0.376859000000  0.153333000000  
0.191524000000  0.376859000000  0.166667000000  
0.180190000000  0.444444000000  0.173333000000  
0.180190000000  0.444444000000  0.186667000000  
0.191444000000  0.377092000000  0.193421000000  
0.191219000000  0.377753000000  0.207160000000  
0.180190000000  0.444907000000  0.213565000000  
0.180216000000  0.447724000000  0.227356000000  
0.189931000000  0.381677000000  0.234916000000  
0.186173000000  0.395048000000  0.249639000000  
0.180918000000  0.461769000000  0.253853000000  
0.181323000000  0.466051000000  0.267302000000  
0.185358000000  0.398498000000  0.272291000000  
0.189474000000  0.383136000000  0.286186000000  
0.180233000000  0.448661000000  0.296243000000  
0.180319000000  0.437148000000  0.308252000000  
0.192401000000  0.374361000000  0.313646000000  
0.192583000000  0.373856000000  0.326848000000  
0.180193000000  0.443315000000  0.333690000000  
0.180193000000  0.443387000000  0.346339000000  
0.192189000000  0.374956000000  0.353061000000  
0.191980000000  0.375547000000  0.366051000000  
0.180249000000  0.439486000000  0.371714000000  
0.180246000000  0.449273000000  0.383947000000  
0.189882000000  0.381832000000  0.392868000000  
0.190304000000  0.380515000000  0.406908000000  
0.180352000000  0.452634000000  0.414924000000  
0.180214000000  0.447632000000  0.428825000000  
0.192380000000  0.374421000000  0.437109000000  
0.190105000000  0.381131000000  0.449140000000  
0.180190000000  0.444432000000  0.455152000000  
0.180190000000  0.444210000000  0.467757000000  
0.191372000000  0.377304000000  0.474064000000  
0.191511000000  0.376897000000  0.486867000000  
0.180190000000  0.444632000000  0.493531000000  
0.180190000000  0.444951000000  0.506701000000  
0.190713000000  0.379264000000  0.513291000000  
0.190768000000  0.379097000000  0.526827000000  
0.180191000000  0.445133000000  0.533370000000  
0.180190000000  0.444728000000  0.546672000000  
0.191882000000  0.375828000000  0.553470000000  
0.191919000000  0.375723000000  0.566560000000  
0.180190000000  0.444325000000  0.573264000000  
0.180190000000  0.444444000000  0.586667000000  
0.191393000000  0.377242000000  0.593356000000  
0.191363000000  0.377330000000  0.606759000000  
0.180190000000  0.444529000000  0.613368000000  
0.180190000000  0.444444000000  0.626667000000  
0.191524000000  0.376859000000  0.633333000000  
0.191502000000  0.376924000000  0.646624000000  
0.180193000000  0.443286000000  0.653150000000  
0.180191000000  0.443866000000  0.666130000000  
0.191354000000  0.377355000000  0.673116000000  
0.190549000000  0.379761000000  0.686488000000  
0.180328000000  0.451985000000  0.692720000000  
0.180408000000  0.453929000000  0.706076000000  
0.190730000000  0.379211000000  0.713299000000  
0.191148000000  0.377962000000  0.726559000000  
0.180192000000  0.445382000000  0.733333000000  
0.180190000000  0.444573000000  0.746473000000  
0.191058000000  0.378229000000  0.752843000000  
0.191029000000  0.378317000000  0.765398000000  
0.180195000000  0.445867000000  0.772373000000  
0.180191000000  0.443755000000  0.785290000000  
0.192520000000  0.374029000000  0.791435000000  
0.191983000000  0.375539000000  0.803699000000  
0.180197000000  0.446101000000  0.810757000000  
0.180358000000  0.436117000000  0.822512000000  
0.199381000000  0.357268000000  0.824300000000  
0.198397000000  0.359438000000  0.846372000000  
0.180312000000  0.437335000000  0.852108000000  
0.180231000000  0.440341000000  0.866029000000  
0.193238000000  0.372066000000  0.872495000000  
0.193152000000  0.372298000000  0.886144000000  
0.180195000000  0.443025000000  0.893038000000  
0.180191000000  0.443661000000  0.906614000000  
0.191483000000  0.376978000000  0.913253000000  
0.191443000000  0.377094000000  0.926610000000  
0.180190000000  0.444444000000  0.933333000000  
0.180190000000  0.444418000000  0.946619000000  
0.190757000000  0.379130000000  0.952973000000  
0.191393000000  0.377241000000  0.965829000000  
0.180190000000  0.444529000000  0.973033000000  
0.180202000000  0.442209000000  0.986259000000  
0.193869000000  0.370388000000  0.992275000000  
0.294040000000  0.256105000000  0.007127000000  
0.229541000000  0.309480000000  0.012636000000  
0.226634000000  0.313057000000  0.026319000000  
0.277652000000  0.266145000000  0.033299000000  
0.276425000000  0.266974000000  0.046664000000  
0.224417000000  0.315890000000  0.053333000000  
0.224417000000  0.315890000000  0.066667000000  
0.275648000000  0.267505000000  0.073333000000  