ATOMIC_SPECIES
C 12.011 C_ONCV_PBE-1.0.upf

NUMERICAL_ORBITAL
C_gga_8au_60Ry_2s2p1d.orb

LATTICE_CONSTANT
1

LATTICE_VECTORS
32.1253418058417  0.00000000000000  0.000000000000000
0.00000000000000  34.0150677944206  0.000000000000000
0.00000000000000  0.00000000000000  202.4042401717085

ATOMIC_POSITIONS
Direct

C
0
1000
0.6306440000  0.5158640000  0.0036320000  1  1  1
0.6432710000  0.4497540000  0.0125300000  1  1  1
0.6432110000  0.4517260000  0.0258860000  1  1  1
0.6295310000  0.5188380000  0.0329930000  1  1  1
0.6311500000  0.5144670000  0.0465330000  1  1  1
0.6433390000  0.4449980000  0.0531450000  1  1  1
0.6433390000  0.4448480000  0.0666290000  1  1  1
0.6319930000  0.5120670000  0.0732900000  1  1  1
0.6320270000  0.5119660000  0.0866600000  1  1  1
0.6433400000  0.4444440000  0.0933330000  1  1  1
0.6433400000  0.4444440000  0.1066670000  1  1  1
0.6320050000  0.5120290000  0.1133330000  1  1  1
0.6320050000  0.5120290000  0.1266670000  1  1  1
0.6433400000  0.4444440000  0.1333330000  1  1  1
0.6433400000  0.4444440000  0.1466670000  1  1  1
0.6320050000  0.5120290000  0.1533330000  1  1  1
0.6320050000  0.5120290000  0.1666670000  1  1  1
0.6433400000  0.4444440000  0.1733330000  1  1  1
0.6433400000  0.4444440000  0.1866670000  1  1  1
0.6320050000  0.5120290000  0.1933330000  1  1  1
0.6320540000  0.5118880000  0.2066580000  1  1  1
0.6433390000  0.4442060000  0.2133310000  1  1  1
0.6433380000  0.4451570000  0.2265140000  1  1  1
0.6313200000  0.5139890000  0.2329090000  1  1  1
0.6300140000  0.5175660000  0.2451990000  1  1  1
0.6426030000  0.4618680000  0.2528950000  1  1  1
0.6372040000  0.4944570000  0.2655090000  1  1  1
0.6424420000  0.4636800000  0.2753210000  1  1  1
0.6353560000  0.5013780000  0.2883940000  1  1  1
0.6433270000  0.4467440000  0.2963700000  1  1  1
0.6432900000  0.4489820000  0.3086120000  1  1  1
0.6306380000  0.5158810000  0.3170690000  1  1  1
0.6335110000  0.5074840000  0.3286350000  1  1  1
0.6433340000  0.4429540000  0.3343380000  1  1  1
0.6433230000  0.4418490000  0.3471140000  1  1  1
0.6321560000  0.5115900000  0.3538220000  1  1  1
0.6320420000  0.5119230000  0.3667210000  1  1  1
0.6433400000  0.4444440000  0.3733330000  1  1  1
0.6433400000  0.4444440000  0.3866670000  1  1  1
0.6320050000  0.5120290000  0.3933330000  1  1  1
0.6320050000  0.5120290000  0.4066670000  1  1  1
0.6433400000  0.4444440000  0.4133330000  1  1  1
0.6433400000  0.4444440000  0.4266670000  1  1  1
0.6320050000  0.5120290000  0.4333330000  1  1  1
0.6320480000  0.5119050000  0.4466920000  1  1  1
0.6433390000  0.4441390000  0.4533900000  1  1  1
0.6433390000  0.4441150000  0.4670090000  1  1  1
0.6319800000  0.5121030000  0.4739300000  1  1  1
0.6319580000  0.5121660000  0.4884000000  1  1  1
0.6433390000  0.4446850000  0.4946810000  1  1  1
0.6429990000  0.4325850000  0.5090620000  1  1  1
0.6185020000  0.5429870000  0.5201800000  1  1  1
0.6399250000  0.4818650000  0.5201410000  1  1  1
0.6429840000  0.4323240000  0.5309260000  1  1  1
0.6433370000  0.4434420000  0.5452420000  1  1  1
0.6320690000  0.5118460000  0.5516830000  1  1  1
0.6324640000  0.5106810000  0.5659640000  1  1  1
0.6433160000  0.4413420000  0.5726690000  1  1  1
0.6433060000  0.4407430000  0.5861870000  1  1  1
0.6323260000  0.5110890000  0.5932070000  1  1  1
0.6321900000  0.5114910000  0.6066310000  1  1  1
0.6433390000  0.4440680000  0.6132930000  1  1  1
0.6433390000  0.4441630000  0.6266470000  1  1  1
0.6320050000  0.5120310000  0.6332780000  1  1  1
0.6320260000  0.5119700000  0.6465830000  1  1  1
0.6433390000  0.4441460000  0.6532990000  1  1  1
0.6433390000  0.4442030000  0.6667280000  1  1  1
0.6318350000  0.5125240000  0.6730920000  1  1  1
0.6310430000  0.5147640000  0.6862640000  1  1  1
0.6433260000  0.4468390000  0.6931390000  1  1  1
0.6433310000  0.4463320000  0.7058940000  1  1  1
0.6313690000  0.5138530000  0.7129590000  1  1  1
0.6331390000  0.5086420000  0.7264710000  1  1  1
0.6427590000  0.4289670000  0.7315210000  1  1  1
0.6432060000  0.4370180000  0.7534260000  1  1  1
0.6309880000  0.5149170000  0.7543430000  1  1  1
0.6312670000  0.5141400000  0.7654180000  1  1  1
0.6368800000  0.3931470000  0.7746040000  1  1  1
0.6421160000  0.4219890000  0.7873540000  1  1  1
0.6341950000  0.5053000000  0.7929870000  1  1  1
0.6326900000  0.5100060000  0.8060770000  1  1  1
0.6433310000  0.4463120000  0.8130280000  1  1  1
0.6432080000  0.4518200000  0.8250660000  1  1  1
0.6300640000  0.5174320000  0.8314130000  1  1  1
0.6333490000  0.5079930000  0.8435290000  1  1  1
0.6372950000  0.3947990000  0.8552410000  1  1  1
0.6426050000  0.4270380000  0.8678450000  1  1  1
0.6342370000  0.5051620000  0.8729870000  1  1  1
0.6328100000  0.5096440000  0.8868470000  1  1  1
0.6433210000  0.4416580000  0.8941360000  1  1  1
0.6433350000  0.4430280000  0.9078350000  1  1  1
0.6328330000  0.5095760000  0.9140660000  1  1  1
0.6322800000  0.5112270000  0.9273810000  1  1  1
0.6433150000  0.4412870000  0.9351860000  1  1  1
0.6433330000  0.4461370000  0.9478440000  1  1  1
0.6318640000  0.5124390000  0.9536670000  1  1  1
0.6316000000  0.5131970000  0.9666710000  1  1  1
0.6433390000  0.4448710000  0.9736910000  1  1  1
0.6433400000  0.4445830000  0.9864920000  1  1  1
0.6338500000  0.5064110000  0.9918800000  1  1  1
0.5636070000  0.6095760000  0.0149700000  1  1  1
0.5880620000  0.5862570000  0.0054140000  1  1  1
0.5868240000  0.5876180000  0.0276670000  1  1  1
0.5419870000  0.6252980000  0.0350850000  1  1  1
0.5451490000  0.6232310000  0.0471720000  1  1  1
0.5982240000  0.5741460000  0.0535310000  1  1  1
0.5991240000  0.5729840000  0.0666950000  1  1  1
0.5479200000  0.6213570000  0.0733760000  1  1  1
0.5478810000  0.6213840000  0.0866670000  1  1  1
0.5991130000  0.5729990000  0.0933330000  1  1  1
0.5991130000  0.5729990000  0.1066670000  1  1  1
0.5478810000  0.6213840000  0.1133330000  1  1  1
0.5478810000  0.6213840000  0.1266670000  1  1  1
0.5991130000  0.5729990000  0.1333330000  1  1  1
0.5991130000  0.5729990000  0.1466670000  1  1  1
0.5478810000  0.6213840000  0.1533330000  1  1  1
0.5478810000  0.6213840000  0.1666670000  1  1  1
0.5991130000  0.5729990000  0.1733330000  1  1  1
0.5991000000  0.5730150000  0.1866690000  1  1  1
0.5478810000  0.6213840000  0.1933330000  1  1  1
0.5479000000  0.6213710000  0.2066640000  1  1  1
0.5990290000  0.5731070000  0.2133350000  1  1  1
0.5988910000  0.5732860000  0.2262440000  1  1  1
0.5464600000  0.6223510000  0.2330290000  1  1  1
0.5470700000  0.6219380000  0.2459350000  1  1  1
0.5961910000  0.5767130000  0.2516610000  1  1  1
0.6016840000  0.5695890000  0.2634390000  1  1  1
0.5519220000  0.6185470000  0.2718310000  1  1  1
0.5503210000  0.6196870000  0.2842010000  1  1  1
0.5920310000  0.5817340000  0.2919680000  1  1  1
0.5640940000  0.6091760000  0.3049890000  1  1  1
0.5876800000  0.5866780000  0.3149310000  1  1  1
0.5632140000  0.6098980000  0.3274210000  1  1  1
0.6031000000  0.5676480000  0.3350150000  1  1  1
0.6007030000  0.5709060000  0.3471890000  1  1  1
0.5488530000  0.6207140000  0.3535390000  1  1  1
0.5479160000  0.6213600000  0.3667220000  1  1  1
0.5991540000  0.5729450000  0.3733970000  1  1  1
0.5991890000  0.5729000000  0.3866480000  1  1  1
0.5484150000  0.6210170000  0.3932230000  1  1  1
0.5482030000  0.6211630000  0.4066110000  1  1  1
0.5991130000  0.5729990000  0.4133330000  1  1  1
0.5991130000  0.5729990000  0.4266670000  1  1  1
0.5470700000  0.6219380000  0.4333580000  1  1  1
0.5467210000  0.6221750000  0.4465290000  1  1  1
0.5990810000  0.5730390000  0.4533910000  1  1  1
0.5988500000  0.5733400000  0.4670430000  1  1  1
0.5479770000  0.6213180000  0.4735140000  1  1  1
0.5465760000  0.6222730000  0.4872120000  1  1  1
0.5978980000  0.5745630000  0.4948190000  1  1  1
0.5899110000  0.5841800000  0.5092380000  1  1  1
0.5380560000  0.6277680000  0.5136930000  1  1  1
0.5374820000  0.6281190000  0.5267990000  1  1  1
0.5899200000  0.5841700000  0.5312260000  1  1  1
0.5983200000  0.5740220000  0.5454300000  1  1  1
0.5478450000  0.6214090000  0.5528870000  1  1  1
0.5489670000  0.6206340000  0.5664370000  1  1  1
0.5994020000  0.5726210000  0.5728720000  1  1  1
0.5996150000  0.5723440000  0.5865250000  1  1  1
0.5478810000  0.6213840000  0.5933330000  1  1  1
0.5478810000  0.6213840000  0.6066670000  1  1  1
0.5991130000  0.5729990000  0.6133330000  1  1  1
0.5991180000  0.5729910000  0.6265710000  1  1  1
0.5478360000  0.6214150000  0.6332040000  1  1  1
0.5480380000  0.6212760000  0.6462480000  1  1  1
0.6000160000  0.5718160000  0.6530540000  1  1  1
0.5993950000  0.5726310000  0.6659550000  1  1  1
0.5501710000  0.6197920000  0.6716740000  1  1  1
0.5411550000  0.6258300000  0.6836400000  1  1  1
0.5944540000  0.5788460000  0.6925600000  1  1  1
0.5935790000  0.5799010000  0.7060630000  1  1  1
0.5423040000  0.6250940000  0.7132660000  1  1  1
0.5480140000  0.6212930000  0.7269160000  1  1  1
0.6023580000  0.5686700000  0.7335940000  1  1  1
0.6015520000  0.5697660000  0.7467040000  1  1  1
0.5485900000  0.6208960000  0.7532450000  1  1  1
0.5484800000  0.6209720000  0.7668120000  1  1  1
0.6016780000  0.5695970000  0.7733220000  1  1  1
0.6032410000  0.5674540000  0.7860590000  1  1  1
0.5488340000  0.6207260000  0.7932600000  1  1  1
0.5480440000  0.6212720000  0.8064300000  1  1  1
0.5978900000  0.5745730000  0.8128640000  1  1  1
0.5981250000  0.5742730000  0.8258800000  1  1  1
0.5470180000  0.6219740000  0.8329930000  1  1  1
0.5488690000  0.6207030000  0.8463170000  1  1  1
0.6022890000  0.5687650000  0.8524880000  1  1  1
0.6039070000  0.5665240000  0.8659920000  1  1  1
0.5502640000  0.6197270000  0.8732120000  1  1  1
0.5497600000  0.6200810000  0.8865900000  1  1  1
0.5999800000  0.5718640000  0.8933300000  1  1  1
0.5995570000  0.5724190000  0.9068970000  1  1  1
0.5479730000  0.6213210000  0.9134070000  1  1  1
0.5478810000  0.6213840000  0.9266670000  1  1  1
0.5995420000  0.5724380000  0.9336410000  1  1  1
0.5987590000  0.5734570000  0.9467280000  1  1  1
0.5477920000  0.6214450000  0.9532110000  1  1  1
0.5488610000  0.6207080000  0.9664870000  1  1  1
0.6008730000  0.5706790000  0.9729420000  1  1  1
0.6032850000  0.5673920000  0.9852660000  1  1  1
0.5642050000  0.6090840000  0.9926030000  1  1  1
0.4183550000  0.6630650000  0.0075060000  1  1  1
0.4883550000  0.6508460000  0.0166080000  1  1  1
0.4777780000  0.6540790000  0.0284470000  1  1  1
0.4094790000  0.6631430000  0.0339400000  1  1  1
0.4091310000  0.6631400000  0.0469600000  1  1  1
0.4826040000  0.6526700000  0.0537670000  1  1  1
0.4830380000  0.6525380000  0.0667400000  1  1  1
0.4117410000  0.6631540000  0.0734010000  1  1  1
0.4117650000  0.6631540000  0.0866670000  1  1  1
0.4833250000  0.6524500000  0.0933330000  1  1  1
0.4833250000  0.6524500000  0.1066670000  1  1  1
0.4117650000  0.6631540000  0.1133330000  1  1  1
0.4117650000  0.6631540000  0.1266670000  1  1  1
0.4833250000  0.6524500000  0.1333330000  1  1  1
0.4833250000  0.6524500000  0.1466670000  1  1  1
0.4117650000  0.6631540000  0.1533330000  1  1  1
0.4117650000  0.6631540000  0.1666670000  1  1  1
0.4833250000  0.6524500000  0.1733330000  1  1  1
0.4833250000  0.6524500000  0.1866670000  1  1  1
0.4117650000  0.6631540000  0.1933330000  1  1  1
0.4117340000  0.6631540000  0.2066740000  1  1  1
0.4830130000  0.6525450000  0.2133170000  1  1  1
0.4830130000  0.6525450000  0.2265440000  1  1  1
0.4117870000  0.6631540000  0.2332150000  1  1  1
0.4126010000  0.6631530000  0.2464090000  1  1  1
0.4845410000  0.6520730000  0.2528410000  1  1  1
0.4865710000  0.6514280000  0.2656300000  1  1  1
0.4136440000  0.6631470000  0.2724930000  1  1  1
0.4125350000  0.6631530000  0.2852760000  1  1  1
0.4811390000  0.6531090000  0.2911540000  1  1  1
0.4894960000  0.6504650000  0.3028560000  1  1  1
0.4162290000  0.6631130000  0.3119280000  1  1  1
0.4191170000  0.6630440000  0.3255480000  1  1  1
0.4901790000  0.6502340000  0.3326550000  1  1  1
0.4853900000  0.6518060000  0.3465100000  1  1  1
0.4102120000  0.6631490000  0.3531810000  1  1  1
0.4087810000  0.6631360000  0.3666960000  1  1  1
0.4827040000  0.6526390000  0.3734700000  1  1  1
0.4832740000  0.6524660000  0.3865200000  1  1  1
0.4124030000  0.6631530000  0.3932900000  1  1  1
0.4139930000  0.6631440000  0.4064060000  1  1  1
0.4840150000  0.6522370000  0.4131300000  1  1  1
0.4820080000  0.6528500000  0.4265200000  1  1  1
0.4054560000  0.6630730000  0.4328160000  1  1  1
0.4031690000  0.6630030000  0.4459280000  1  1  1
0.4810570000  0.6531340000  0.4531560000  1  1  1
0.4816380000  0.6529610000  0.4665300000  1  1  1
0.4117560000  0.6631540000  0.4731000000  1  1  1
0.4113370000  0.6631540000  0.4866700000  1  1  1
0.4815080000  0.6529990000  0.4934880000  1  1  1
0.4791780000  0.6536820000  0.5069460000  1  1  1
0.4087770000  0.6631360000  0.5132520000  1  1  1
0.4086290000  0.6631340000  0.5269620000  1  1  1
0.4796850000  0.6535350000  0.5333340000  1  1  1
0.4823950000  0.6527330000  0.5465330000  1  1  1
0.4117060000  0.6631540000  0.5533620000  1  1  1
0.4120250000  0.6631540000  0.5666700000  1  1  1
0.4835070000  0.6523940000  0.5733480000  1  1  1
0.4834720000  0.6524040000  0.5866820000  1  1  1
0.4117650000  0.6631540000  0.5933330000  1  1  1
0.4117650000  0.6631540000  0.6066670000  1  1  1
0.4833250000  0.6524500000  0.6133330000  1  1  1
0.4834190000  0.6524210000  0.6266180000  1  1  1
0.4120580000  0.6631540000  0.6333570000  1  1  1
0.4130270000  0.6631510000  0.6466100000  1  1  1
0.4845910000  0.6520570000  0.6529210000  1  1  1
0.4877130000  0.6510570000  0.6652750000  1  1  1
0.4244260000  0.6628270000  0.6731560000  1  1  1
0.4258060000  0.6627520000  0.6961350000  1  1  1
0.4582680000  0.6586990000  0.6857510000  1  1  1
0.4645780000  0.6573900000  0.7085160000  1  1  1
0.4071460000  0.6631100000  0.7164790000  1  1  1
0.4126660000  0.6631520000  0.7281730000  1  1  1
0.4841130000  0.6522070000  0.7341580000  1  1  1
0.4853700000  0.6518120000  0.7467440000  1  1  1
0.4122520000  0.6631540000  0.7535990000  1  1  1
0.4120300000  0.6631540000  0.7667810000  1  1  1
0.4839680000  0.6522510000  0.7735170000  1  1  1
0.4839610000  0.6522530000  0.7865400000  1  1  1
0.4115580000  0.6631540000  0.7932870000  1  1  1
0.4116330000  0.6631540000  0.8066850000  1  1  1
0.4826990000  0.6526410000  0.8132580000  1  1  1
0.4830340000  0.6525390000  0.8266190000  1  1  1
0.4117650000  0.6631540000  0.8333330000  1  1  1
0.4115370000  0.6631540000  0.8466950000  1  1  1
0.4837500000  0.6523190000  0.8533610000  1  1  1
0.4841630000  0.6521910000  0.8665260000  1  1  1
0.4117650000  0.6631540000  0.8733330000  1  1  1
0.4117650000  0.6631540000  0.8866670000  1  1  1
0.4836470000  0.6523510000  0.8933470000  1  1  1
0.4833250000  0.6524500000  0.9066670000  1  1  1
0.4117650000  0.6631540000  0.9133330000  1  1  1
0.4117650000  0.6631540000  0.9266670000  1  1  1
0.4833250000  0.6524500000  0.9333330000  1  1  1
0.4834400000  0.6524140000  0.9466190000  1  1  1
0.4119090000  0.6631540000  0.9533450000  1  1  1
0.4124630000  0.6631530000  0.9668410000  1  1  1
0.4859670000  0.6516220000  0.9734240000  1  1  1
0.4908230000  0.6500140000  0.9871820000  1  1  1
0.4212610000  0.6629700000  0.9941880000  1  1  1
0.2760610000  0.6216670000  0.0065920000  1  1  1
0.3412880000  0.6527800000  0.0135990000  1  1  1
0.3392370000  0.6521510000  0.0269680000  1  1  1
0.2752620000  0.6211190000  0.0333520000  1  1  1
0.2752370000  0.6211010000  0.0467020000  1  1  1
0.3395960000  0.6522620000  0.0533830000  1  1  1
0.3397250000  0.6523020000  0.0666730000  1  1  1
0.2756480000  0.6213840000  0.0733330000  1  1  1
0.2756480000  0.6213840000  0.0866670000  1  1  1
0.3402040000  0.6524500000  0.0933330000  1  1  1
0.3402040000  0.6524500000  0.1066670000  1  1  1
0.2756480000  0.6213840000  0.1133330000  1  1  1
0.2756480000  0.6213840000  0.1266670000  1  1  1
0.3402040000  0.6524500000  0.1333330000  1  1  1
0.3402040000  0.6524500000  0.1466670000  1  1  1
0.2756480000  0.6213840000  0.1533330000  1  1  1
0.2756480000  0.6213840000  0.1666670000  1  1  1
0.3402040000  0.6524500000  0.1733330000  1  1  1
0.3402040000  0.6524500000  0.1866670000  1  1  1
0.2756480000  0.6213840000  0.1933330000  1  1  1
0.2755390000  0.6213090000  0.2066960000  1  1  1
0.3400750000  0.6524100000  0.2133690000  1  1  1
0.3401710000  0.6524390000  0.2266740000  1  1  1
0.2767260000  0.6221190000  0.2332760000  1  1  1
0.2780910000  0.6230370000  0.2462450000  1  1  1
0.3440880000  0.6536060000  0.2528460000  1  1  1
0.3446620000  0.6537710000  0.2658260000  1  1  1
0.2826080000  0.6259780000  0.2716030000  1  1  1
0.2736970000  0.6200310000  0.2834460000  1  1  1
0.3357750000  0.6510440000  0.2920550000  1  1  1
0.3354710000  0.6509440000  0.3053260000  1  1  1
0.2705930000  0.6178150000  0.3129810000  1  1  1
0.2749680000  0.6209160000  0.3264010000  1  1  1
0.3415950000  0.6528720000  0.3328730000  1  1  1
0.3412560000  0.6527700000  0.3466090000  1  1  1
0.2736720000  0.6200130000  0.3533400000  1  1  1
0.2696470000  0.6171240000  0.3669980000  1  1  1
0.3319440000  0.6497510000  0.3739290000  1  1  1
0.3349090000  0.6507580000  0.3870220000  1  1  1
0.2738500000  0.6201380000  0.3961540000  1  1  1
0.2856420000  0.6278710000  0.4070850000  1  1  1
0.3467560000  0.6543590000  0.4124440000  1  1  1
0.3374490000  0.6515860000  0.4243320000  1  1  1
0.2610880000  0.6105260000  0.4262020000  1  1  1
0.2600130000  0.6096500000  0.4478980000  1  1  1
0.3326220000  0.6499850000  0.4530370000  1  1  1
0.3379890000  0.6517580000  0.4665220000  1  1  1
0.2744980000  0.6205900000  0.4737090000  1  1  1
0.2757800000  0.6214750000  0.4867100000  1  1  1
0.3399510000  0.6523720000  0.4933150000  1  1  1
0.3393820000  0.6521960000  0.5066950000  1  1  1
0.2756480000  0.6213840000  0.5133330000  1  1  1
0.2756480000  0.6213840000  0.5266670000  1  1  1
0.3399790000  0.6523800000  0.5333770000  1  1  1
0.3400000000  0.6523870000  0.5467030000  1  1  1
0.2756480000  0.6213840000  0.5533330000  1  1  1
0.2756480000  0.6213840000  0.5666670000  1  1  1
0.3402040000  0.6524500000  0.5733330000  1  1  1
0.3402040000  0.6524500000  0.5866670000  1  1  1
0.2756480000  0.6213840000  0.5933330000  1  1  1
0.2756480000  0.6213840000  0.6066670000  1  1  1
0.3402290000  0.6524570000  0.6133340000  1  1  1
0.3402480000  0.6524630000  0.6266950000  1  1  1
0.2758310000  0.6215090000  0.6333490000  1  1  1
0.2753540000  0.6211820000  0.6467940000  1  1  1
0.3404200000  0.6525160000  0.6535920000  1  1  1
0.3406040000  0.6525720000  0.6673040000  1  1  1
0.2659190000  0.6143290000  0.6732530000  1  1  1
0.2411690000  0.5923460000  0.6858130000  1  1  1
0.3412430000  0.6527660000  0.7002380000  1  1  1
0.3415230000  0.6528500000  0.7112510000  1  1  1
0.2817090000  0.6254040000  0.7166400000  1  1  1
0.2772230000  0.6224550000  0.7280780000  1  1  1
0.3412070000  0.6527550000  0.7349720000  1  1  1
0.3410760000  0.6527150000  0.7471400000  1  1  1
0.2761650000  0.6217370000  0.7536910000  1  1  1
0.2756550000  0.6213880000  0.7667090000  1  1  1
0.3403370000  0.6524900000  0.7734150000  1  1  1
0.3402040000  0.6524500000  0.7866670000  1  1  1
0.2758460000  0.6215190000  0.7931930000  1  1  1
0.2754500000  0.6212480000  0.8065040000  1  1  1
0.3402040000  0.6524500000  0.8133330000  1  1  1
0.3401280000  0.6524260000  0.8266480000  1  1  1
0.2741680000  0.6203600000  0.8332700000  1  1  1
0.2734180000  0.6198340000  0.8463950000  1  1  1
0.3394950000  0.6522310000  0.8532920000  1  1  1
0.3395990000  0.6522630000  0.8666650000  1  1  1
0.2755980000  0.6213490000  0.8732620000  1  1  1
0.2756480000  0.6213840000  0.8866670000  1  1  1
0.3402040000  0.6524500000  0.8933330000  1  1  1
0.3402040000  0.6524500000  0.9066670000  1  1  1
0.2756480000  0.6213840000  0.9133330000  1  1  1
0.2756480000  0.6213840000  0.9266670000  1  1  1
0.3402040000  0.6524500000  0.9333330000  1  1  1
0.3402040000  0.6524500000  0.9466670000  1  1  1
0.2756480000  0.6213840000  0.9533330000  1  1  1
0.2756110000  0.6213590000  0.9666660000  1  1  1
0.3419370000  0.6529740000  0.9735080000  1  1  1
0.3428940000  0.6532580000  0.9868490000  1  1  1
0.2766950000  0.6220980000  0.9935080000  1  1  1
0.1907740000  0.5098090000  0.0064120000  1  1  1
0.2240040000  0.5724600000  0.0132150000  1  1  1
0.2239790000  0.5724280000  0.0265710000  1  1  1
0.1913690000  0.5115780000  0.0332120000  1  1  1
0.1914340000  0.5117690000  0.0466420000  1  1  1
0.2243900000  0.5729630000  0.0533480000  1  1  1
0.2244170000  0.5729990000  0.0666670000  1  1  1
0.1915240000  0.5120290000  0.0733330000  1  1  1
0.1915240000  0.5120290000  0.0866670000  1  1  1
0.2244170000  0.5729990000  0.0933330000  1  1  1
0.2244170000  0.5729990000  0.1066670000  1  1  1
0.1915240000  0.5120290000  0.1133330000  1  1  1
0.1915240000  0.5120290000  0.1266670000  1  1  1
0.2244170000  0.5729990000  0.1333330000  1  1  1
0.2244170000  0.5729990000  0.1466670000  1  1  1
0.1915240000  0.5120290000  0.1533330000  1  1  1
0.1915240000  0.5120290000  0.1666670000  1  1  1
0.2244170000  0.5729990000  0.1733330000  1  1  1
0.2244170000  0.5729990000  0.1866670000  1  1  1
0.1914790000  0.5118990000  0.1933060000  1  1  1
0.1915600000  0.5121340000  0.2067430000  1  1  1
0.2246140000  0.5732550000  0.2133310000  1  1  1
0.2250300000  0.5737920000  0.2267220000  1  1  1
0.1931230000  0.5165110000  0.2334900000  1  1  1
0.1946100000  0.5204160000  0.2468710000  1  1  1
0.2299000000  0.5798410000  0.2528610000  1  1  1
0.2327520000  0.5831880000  0.2654090000  1  1  1
0.2013150000  0.5357090000  0.2727680000  1  1  1
0.1983520000  0.5293490000  0.2949110000  1  1  1
0.2156820000  0.5608010000  0.2851650000  1  1  1
0.2130290000  0.5567140000  0.3077510000  1  1  1
0.1893250000  0.5052660000  0.3150980000  1  1  1
0.1904380000  0.5087880000  0.3271540000  1  1  1
0.2237730000  0.5721570000  0.3334970000  1  1  1
0.2236810000  0.5720370000  0.3464760000  1  1  1
0.1906770000  0.5095170000  0.3529000000  1  1  1
0.1895870000  0.5061140000  0.3652040000  1  1  1
0.2129720000  0.5566240000  0.3725120000  1  1  1
0.1976210000  0.5276910000  0.3856170000  1  1  1
0.2142810000  0.5586680000  0.3951170000  1  1  1
0.2006260000  0.5342770000  0.4085680000  1  1  1
0.2408590000  0.5920260000  0.4147450000  1  1  1
0.2362230000  0.5870900000  0.4355730000  1  1  1
0.1930390000  0.5162850000  0.4375130000  1  1  1
0.1902520000  0.5082130000  0.4492860000  1  1  1
0.2201060000  0.5672000000  0.4554620000  1  1  1
0.2227450000  0.5707980000  0.4675420000  1  1  1
0.1913280000  0.5114580000  0.4743350000  1  1  1
0.1916100000  0.5122790000  0.4868170000  1  1  1
0.2245770000  0.5732070000  0.4933940000  1  1  1
0.2244170000  0.5729990000  0.5066670000  1  1  1
0.1916220000  0.5123130000  0.5133090000  1  1  1
0.1916570000  0.5124160000  0.5266810000  1  1  1
0.2244170000  0.5729990000  0.5333330000  1  1  1
0.2244170000  0.5729990000  0.5466670000  1  1  1
0.1915220000  0.5120230000  0.5533080000  1  1  1
0.1915450000  0.5120920000  0.5666520000  1  1  1
0.2244170000  0.5729990000  0.5733330000  1  1  1
0.2244170000  0.5729990000  0.5866670000  1  1  1
0.1915240000  0.5120290000  0.5933330000  1  1  1
0.1915240000  0.5120290000  0.6066670000  1  1  1
0.2244170000  0.5729990000  0.6133330000  1  1  1
0.2244170000  0.5729990000  0.6266670000  1  1  1
0.1914340000  0.5117680000  0.6333360000  1  1  1
0.1913840000  0.5116210000  0.6464520000  1  1  1
0.2237510000  0.5721290000  0.6531600000  1  1  1
0.2219220000  0.5696920000  0.6654210000  1  1  1
0.1908980000  0.5101810000  0.6718850000  1  1  1
0.1942580000  0.5195140000  0.6837500000  1  1  1
0.2654060000  0.6139350000  0.6961910000  1  1  1
0.2376880000  0.5886830000  0.7083720000  1  1  1
0.1945200000  0.5201850000  0.7132780000  1  1  1
0.1925620000  0.5149760000  0.7268710000  1  1  1
0.2255520000  0.5744610000  0.7340190000  1  1  1
0.2244830000  0.5730850000  0.7468110000  1  1  1
0.1916350000  0.5123500000  0.7532560000  1  1  1
0.1914620000  0.5118500000  0.7662910000  1  1  1
0.2245480000  0.5731690000  0.7732010000  1  1  1
0.2241410000  0.5726400000  0.7863320000  1  1  1
0.1919150000  0.5131560000  0.7925710000  1  1  1
0.1912160000  0.5111270000  0.8053200000  1  1  1
0.2241650000  0.5726710000  0.8127590000  1  1  1
0.2222740000  0.5701660000  0.8259880000  1  1  1
0.1893120000  0.5052260000  0.8318250000  1  1  1
0.1886020000  0.5028590000  0.8455210000  1  1  1
0.2224880000  0.5704530000  0.8529510000  1  1  1
0.2227730000  0.5708340000  0.8662910000  1  1  1
0.1909410000  0.5103110000  0.8729110000  1  1  1
0.1910540000  0.5106480000  0.8863930000  1  1  1
0.2244140000  0.5729950000  0.8932760000  1  1  1
0.2244170000  0.5729990000  0.9066670000  1  1  1
0.1914790000  0.5118990000  0.9133250000  1  1  1
0.1915240000  0.5120290000  0.9266670000  1  1  1
0.2244170000  0.5729990000  0.9333330000  1  1  1
0.2244170000  0.5729990000  0.9466670000  1  1  1
0.1916460000  0.5123840000  0.9533220000  1  1  1
0.1915460000  0.5120920000  0.9665850000  1  1  1
0.2243820000  0.5729530000  0.9733120000  1  1  1
0.2244170000  0.5729990000  0.9866670000  1  1  1
0.1910010000  0.5104900000  0.9933110000  1  1  1
0.1947470000  0.3681250000  0.0057530000  1  1  1
0.1802100000  0.4415260000  0.0129630000  1  1  1
0.1802010000  0.4422830000  0.0264610000  1  1  1
0.1918040000  0.3760520000  0.0330300000  1  1  1
0.1915750000  0.3767120000  0.0466130000  1  1  1
0.1801900000  0.4444440000  0.0533330000  1  1  1
0.1801900000  0.4444440000  0.0666670000  1  1  1
0.1915240000  0.3768590000  0.0733330000  1  1  1
0.1915240000  0.3768590000  0.0866670000  1  1  1
0.1801900000  0.4444440000  0.0933330000  1  1  1
0.1801900000  0.4444440000  0.1066670000  1  1  1
0.1915240000  0.3768590000  0.1133330000  1  1  1
0.1915240000  0.3768590000  0.1266670000  1  1  1
0.1801900000  0.4444440000  0.1333330000  1  1  1
0.1801900000  0.4444440000  0.1466670000  1  1  1
0.1915240000  0.3768590000  0.1533330000  1  1  1
0.1915240000  0.3768590000  0.1666670000  1  1  1
0.1801900000  0.4444440000  0.1733330000  1  1  1
0.1801900000  0.4444440000  0.1866670000  1  1  1
0.1914440000  0.3770920000  0.1934210000  1  1  1
0.1912190000  0.3777530000  0.2071600000  1  1  1
0.1801900000  0.4449070000  0.2135650000  1  1  1
0.1802160000  0.4477240000  0.2273560000  1  1  1
0.1899310000  0.3816770000  0.2349160000  1  1  1
0.1861730000  0.3950480000  0.2496390000  1  1  1
0.1809180000  0.4617690000  0.2538530000  1  1  1
0.1813230000  0.4660510000  0.2673020000  1  1  1
0.1853580000  0.3984980000  0.2722910000  1  1  1
0.1894740000  0.3831360000  0.2861860000  1  1  1
0.1802330000  0.4486610000  0.2962430000  1  1  1
0.1803190000  0.4371480000  0.3082520000  1  1  1
0.1924010000  0.3743610000  0.3136460000  1  1  1
0.1925830000  0.3738560000  0.3268480000  1  1  1
0.1801930000  0.4433150000  0.3336900000  1  1  1
0.1801930000  0.4433870000  0.3463390000  1  1  1
0.1921890000  0.3749560000  0.3530610000  1  1  1
0.1919800000  0.3755470000  0.3660510000  1  1  1
0.1802490000  0.4394860000  0.3717140000  1  1  1
0.1802460000  0.4492730000  0.3839470000  1  1  1
0.1898820000  0.3818320000  0.3928680000  1  1  1
0.1903040000  0.3805150000  0.4069080000  1  1  1
0.1803520000  0.4526340000  0.4149240000  1  1  1
0.1802140000  0.4476320000  0.4288250000  1  1  1
0.1923800000  0.3744210000  0.4371090000  1  1  1
0.1901050000  0.3811310000  0.4491400000  1  1  1
0.1801900000  0.4444320000  0.4551520000  1  1  1
0.1801900000  0.4442100000  0.4677570000  1  1  1
0.1913720000  0.3773040000  0.4740640000  1  1  1
0.1915110000  0.3768970000  0.4868670000  1  1  1
0.1801900000  0.4446320000  0.4935310000  1  1  1
0.1801900000  0.4449510000  0.5067010000  1  1  1
0.1907130000  0.3792640000  0.5132910000  1  1  1
0.1907680000  0.3790970000  0.5268270000  1  1  1
0.1801910000  0.4451330000  0.5333700000  1  1  1
0.1801900000  0.4447280000  0.5466720000  1  1  1
0.1918820000  0.3758280000  0.5534700000  1  1  1
0.1919190000  0.3757230000  0.5665600000  1  1  1
0.1801900000  0.4443250000  0.5732640000  1  1  1
0.1801900000  0.4444440000  0.5866670000  1  1  1
0.1913930000  0.3772420000  0.5933560000  1  1  1
0.1913630000  0.3773300000  0.6067590000  1  1  1
0.1801900000  0.4445290000  0.6133680000  1  1  1
0.1801900000  0.4444440000  0.6266670000  1  1  1
0.1915240000  0.3768590000  0.6333330000  1  1  1
0.1915020000  0.3769240000  0.6466240000  1  1  1
0.1801930000  0.4432860000  0.6531500000  1  1  1
0.1801910000  0.4438660000  0.6661300000  1  1  1
0.1913540000  0.3773550000  0.6731160000  1  1  1
0.1905490000  0.3797610000  0.6864880000  1  1  1
0.1803280000  0.4519850000  0.6927200000  1  1  1
0.1804080000  0.4539290000  0.7060760000  1  1  1
0.1907300000  0.3792110000  0.7132990000  1  1  1
0.1911480000  0.3779620000  0.7265590000  1  1  1
0.1801920000  0.4453820000  0.7333330000  1  1  1
0.1801900000  0.4445730000  0.7464730000  1  1  1
0.1910580000  0.3782290000  0.7528430000  1  1  1
0.1910290000  0.3783170000  0.7653980000  1  1  1
0.1801950000  0.4458670000  0.7723730000  1  1  1
0.1801910000  0.4437550000  0.7852900000  1  1  1
0.1925200000  0.3740290000  0.7914350000  1  1  1
0.1919830000  0.3755390000  0.8036990000  1  1  1
0.1801970000  0.4461010000  0.8107570000  1  1  1
0.1803580000  0.4361170000  0.8225120000  1  1  1
0.1993810000  0.3572680000  0.8243000000  1  1  1
0.1983970000  0.3594380000  0.8463720000  1  1  1
0.1803120000  0.4373350000  0.8521080000  1  1  1
0.1802310000  0.4403410000  0.8660290000  1  1  1
0.1932380000  0.3720660000  0.8724950000  1  1  1
0.1931520000  0.3722980000  0.8861440000  1  1  1
0.1801950000  0.4430250000  0.8930380000  1  1  1
0.1801910000  0.4436610000  0.9066140000  1  1  1
0.1914830000  0.3769780000  0.9132530000  1  1  1
0.1914430000  0.3770940000  0.9266100000  1  1  1