%BLOCK LATTICE_CART
2.863638091842    0.000000000000    0.000000000000    
-1.431819045921    2.479983334780    0.000000000000    
0.000000000000    0.000000000000    4.683255457976    
%END BLOCK LATTICE_CART
%BLOCK POSITIONS_FRAC
Mg    0.000000000000    0.000000000000    0.000000000000
Mg    0.666666666667    0.333333333333    0.500000000000
%END BLOCK POSITIONS_FRAC
%BLOCK SPECIES_POT
Mg mg.gga.recpot
%END BLOCK SPECIES_POT
