ATOMIC_SPECIES
Li 6.941 li.gga.psp.1 blps
Al 26.981 al.gga.psp blps

LATTICE_CONSTANT
1.8897259885789233  // add lattice constant

LATTICE_VECTORS
2.216947063965    -3.839864952479    0.000000000000    
2.216947063965    3.839864952479    0.000000000000    
0.000000000000    0.000000000000    14.119094935224    

ATOMIC_POSITIONS
Direct

Li
0.0
9
    0.666666666667    0.333333333333    0.931123083333 1 1 1
    0.666666666667    0.333333333333    0.735543583333 1 1 1
    0.000000000000    0.000000000000    0.000000000000 1 1 1
    0.333333333333    0.666666666667    0.264456416667 1 1 1
    0.333333333333    0.666666666667    0.068876916667 1 1 1
    0.666666666667    0.333333333333    0.333333333333 1 1 1
    0.000000000000    0.000000000000    0.597789750000 1 1 1
    0.000000000000    0.000000000000    0.402210250000 1 1 1
    0.333333333333    0.666666666667    0.666666666667 1 1 1
Al
0.0
6
    0.333333333333    0.666666666667    0.863018496667 1 1 1
    0.000000000000    0.000000000000    0.803648170000 1 1 1
    0.000000000000    0.000000000000    0.196351830000 1 1 1
    0.666666666667    0.333333333333    0.136981503333 1 1 1
    0.666666666667    0.333333333333    0.529685163333 1 1 1
    0.333333333333    0.666666666667    0.470314836667 1 1 1
