ATOMIC_SPECIES
Si 28.085 si.gga.psp blps

LATTICE_CONSTANT
1.8897259885789233  // add lattice constant

LATTICE_VECTORS
1.915658730266    -3.318018250783    0.000000000000    
1.915658730266    3.318018250783    0.000000000000    
0.000000000000    0.000000000000    6.332622000152    

ATOMIC_POSITIONS
Direct

Si
0.0
4
    0.333333333333    0.666666666667    0.063009500000 1 1 1
    0.666666666667    0.333333333333    0.563009500000 1 1 1
    0.333333333333    0.666666666667    0.436990500000 1 1 1
    0.666666666667    0.333333333333    0.936990500000 1 1 1
