%BLOCK LATTICE_CART
3.039093154440    0.000000000000    0.000000000000    
-1.519546577220    2.631931876212    0.000000000000    
0.000000000000    0.000000000000    4.986919531411    
%END BLOCK LATTICE_CART
%BLOCK POSITIONS_FRAC
Al    0.000000000000    0.000000000000    0.000000000000
Al    0.666666666667    0.333333333333    0.500000000000
%END BLOCK POSITIONS_FRAC
%BLOCK SPECIES_POT
Al al.gga.recpot
%END BLOCK SPECIES_POT
