%BLOCK LATTICE_CART
6.607031251082    0.000000000000    0.000000000000    
0.000000000000    6.607031251082    0.000000000000    
0.000000000000    0.000000000000    6.607031251082    
%END BLOCK LATTICE_CART
%BLOCK POSITIONS_FRAC
Si    0.148443000000    0.851557000000    0.351557000000
Si    0.851557000000    0.648443000000    0.351557000000
Si    0.351557000000    0.851557000000    0.648443000000
Si    0.648443000000    0.648443000000    0.648443000000
Si    0.851557000000    0.148443000000    0.648443000000
Si    0.648443000000    0.851557000000    0.148443000000
Si    0.648443000000    0.148443000000    0.351557000000
Si    0.351557000000    0.351557000000    0.351557000000
Si    0.648443000000    0.351557000000    0.851557000000
Si    0.351557000000    0.148443000000    0.851557000000
Si    0.851557000000    0.351557000000    0.148443000000
Si    0.148443000000    0.148443000000    0.148443000000
Si    0.351557000000    0.648443000000    0.148443000000
Si    0.148443000000    0.351557000000    0.648443000000
Si    0.148443000000    0.648443000000    0.851557000000
Si    0.851557000000    0.851557000000    0.851557000000
%END BLOCK POSITIONS_FRAC
%BLOCK SPECIES_POT
Si si.gga.recpot
%END BLOCK SPECIES_POT
