INPUT_PARAMETERS
calculation relax 
ntype 2
ecutwfc 100.000000
#scf_nmax 1
basis_type lcao
dft_functional scan
gamma_only 1
mixing_type pulay
mixing_beta 0.400000
smearing_method fixed
smearing_sigma 0.0000000
cal_force 1
relax_nmax 100
force_thr_ev 1e-2
