ATOMIC_SPECIES
H 1 ../H_ONCV_PBE-1.0.upf
O 15.9994 ../O_ONCV_PBE-1.0.upf

LATTICE_CONSTANT
1.8897259886

LATTICE_VECTORS
20 0.0 0.0
0.0 20 0.0
0.0 0.0 20

NUMERICAL_ORBITAL
../H_gga_10au_100Ry_3s2p.orb
../O_gga_10au_100Ry_3s3p2d.orb


ATOMIC_POSITIONS
Cartesian #(Unit is LATTICE_CONSTANT)
H
0.0
2
6.12323 8.17222 24.0581
4.79885 8.92939 24.3347
O
0.0
1
5.6626 9.04346 23.8818
