ATOMIC_SPECIES
C 12 /home/mhchen_pkuhpc/mhchen_cls/lustre2/5_liurenxi/03a01_abacus-lcao-scan/pp/SG15_ONCV_v1.0_upf/C_ONCV_PBE-1.0.upf
H 1 /home/mhchen_pkuhpc/mhchen_cls/lustre2/5_liurenxi/03a01_abacus-lcao-scan/pp/SG15_ONCV_v1.0_upf/H_ONCV_PBE-1.0.upf
C_empty 12 /home/mhchen_pkuhpc/mhchen_cls/lustre2/5_liurenxi/03a01_abacus-lcao-scan/pp/SG15_ONCV_v1.0_upf/C_ONCV_PBE-1.0.upf
H_empty 1 /home/mhchen_pkuhpc/mhchen_cls/lustre2/5_liurenxi/03a01_abacus-lcao-scan/pp/SG15_ONCV_v1.0_upf/H_ONCV_PBE-1.0.upf

LATTICE_CONSTANT
1.8897161646321

LATTICE_VECTORS
20 0 0
0 20 0
0 0 20

NUMERICAL_ORBITAL
/home/mhchen_pkuhpc/mhchen_cls/lustre2/5_liurenxi/03a01_abacus-lcao-scan/orb/Orb_DZP_E100_Full/C/C_gga_10au_100Ry_2s2p1d.orb
/home/mhchen_pkuhpc/mhchen_cls/lustre2/5_liurenxi/03a01_abacus-lcao-scan/orb/Orb_DZP_E100_Full/H/H_gga_10au_100Ry_2s1p.orb
/home/mhchen_pkuhpc/mhchen_cls/lustre2/5_liurenxi/03a01_abacus-lcao-scan/orb/Orb_DZP_E100_Full/C/C_gga_10au_100Ry_2s2p1d.orb
/home/mhchen_pkuhpc/mhchen_cls/lustre2/5_liurenxi/03a01_abacus-lcao-scan/orb/Orb_DZP_E100_Full/H/H_gga_10au_100Ry_2s1p.orb

ATOMIC_POSITIONS
Cartesian    # Cartesian(Unit is LATTICE_CONSTANT)
C
0.0
6
-1.394063 0.000000 -2.454152 m 0 0 0 
-0.697047 1.207238 -2.454628 m 0 0 0 
0.697047 1.207238 -2.454628 m 0 0 0 
1.394063 0.000000 -2.454152 m 0 0 0 
0.697047 -1.207238 -2.454628 m 0 0 0 
-0.697047 -1.207238 -2.454628 m 0 0 0 
H
0.0
6
-2.475399 0.000000 -2.450322 m 0 0 0 
-1.238232 2.143565 -2.453676 m 0 0 0 
1.238232 2.143565 -2.453676 m 0 0 0 
2.475399 0.000000 -2.450322 m 0 0 0 
1.238232 -2.143565 -2.453676 m 0 0 0 
-1.238232 -2.143565 -2.453676 m 0 0 0 
C_empty
0.0
6
0.000000 0.000000 1.059035 m 0 0 0 
0.000000 -1.206008 1.757674 m 0 0 0 
0.000000 -1.207177 3.151591 m 0 0 0 
0.000000 0.000000 3.848575 m 0 0 0 
0.000000 1.207177 3.151591 m 0 0 0 
0.000000 1.206008 1.757674 m 0 0 0 
H_empty
0.0
6
0.000000 0.000000 -0.021580 m 0 0 0 
0.000000 -2.141639 1.214422 m 0 0 0 
0.000000 -2.143566 3.692995 m 0 0 0 
0.000000 0.000000 4.930150 m 0 0 0 
0.000000 2.143566 3.692995 m 0 0 0 
0.000000 2.141639 1.214422 m 0 0 0 
