ATOMIC_SPECIES
Ga  Ga_mass  Ga_pesudopotential
P  P_mass  P_pesudopotential
H  H_mass  H_pesudopotential
O  O_mass  O_pesudopotential

NUMERICAL_ORBITAL
Ga_orbital
P_orbital
H_orbital
O_orbital

LATTICE_CONSTANT
1.889727000000

LATTICE_VECTORS
15.605759999987  0.000000000000  0.000000000000
0.000000000000  16.552409999993  0.000000000000
0.000000000000  0.000000000000  30.388121999996

ATOMIC_POSITIONS
Direct

Ga
0
60
0.374957785046  0.164259627884  0.064158702590  1  1  1
0.374933711928  0.830250401209  0.064397326944  1  1  1
0.376072765301  0.498696277989  0.064832367089  1  1  1
0.875134326309  0.164312956199  0.064232186109  1  1  1
0.874791944401  0.830972328008  0.064275783612  1  1  1
0.874968619138  0.497457253946  0.064178573589  1  1  1
0.374954462879  0.164246874558  0.196770506463  1  1  1
0.374938821760  0.830217211540  0.196520119609  1  1  1
0.376078084466  0.498719697419  0.196016276036  1  1  1
0.875140300167  0.164290985876  0.196696690617  1  1  1
0.874795744851  0.830969173154  0.196629863379  1  1  1
0.874963575599  0.497458601736  0.196742284892  1  1  1
0.000049631204  0.021977605764  0.015696746284  1  1  1
0.999746689075  0.688908881748  0.015692945782  1  1  1
0.000107509543  0.355355273239  0.015613304255  1  1  1
0.499861540357  0.021952234972  0.015781965852  1  1  1
0.498598587809  0.674390129636  0.007539922196  1  1  1
0.500977090894  0.355147424455  0.015687145163  1  1  1
0.249896365522  0.021615148539  0.015807998302  1  1  1
0.248460196744  0.689129562568  0.015306740449  1  1  1
0.249967136997  0.355936967861  0.015351321619  1  1  1
0.750093451050  0.022048111590  0.015865779199  1  1  1
0.750548679621  0.687045602642  0.015416681054  1  1  1
0.750251011352  0.354979074810  0.015747648443  1  1  1
0.125135754160  0.164418809046  0.064151049193  1  1  1
0.125007458159  0.831103126574  0.064331910985  1  1  1
0.125195433733  0.497954706468  0.064268542478  1  1  1
0.625045561064  0.164349344174  0.064222511856  1  1  1
0.624768165927  0.830606526015  0.064153122064  1  1  1
0.623782564907  0.497620434822  0.064247598565  1  1  1
0.000000000000  0.000000000000  0.130439996734  0  0  0
0.000000000000  0.666670024140  0.130439996734  0  0  0
0.000000000000  0.333330005400  0.130439996734  0  0  0
0.500000000025  0.000000000000  0.130439996734  0  0  0
0.500000000025  0.666670024140  0.130439996734  0  0  0
0.500000000025  0.333330005400  0.130439996734  0  0  0
0.249999999980  0.000000000000  0.130439996734  0  0  0
0.249999999980  0.666670024140  0.130439996734  0  0  0
0.249999999980  0.333330005400  0.130439996734  0  0  0
0.750000000266  0.000000000000  0.130439996734  0  0  0
0.750000000266  0.666670024140  0.130439996734  0  0  0
0.750000000266  0.333330005400  0.130439996734  0  0  0
0.125143186239  0.164401937667  0.196783125790  1  1  1
0.125019921253  0.831070946097  0.196587118685  1  1  1
0.125205051783  0.497920510635  0.196653221602  1  1  1
0.625048122964  0.164330078438  0.196702547397  1  1  1
0.624769337080  0.830580132395  0.196782501568  1  1  1
0.623798026751  0.497618020260  0.196664101113  1  1  1
0.000054661167  0.021938376077  0.245122582257  1  1  1
0.999753022889  0.688908013291  0.245121392751  1  1  1
0.000114712275  0.355340986790  0.245207648320  1  1  1
0.499861866183  0.021934482332  0.245035955959  1  1  1
0.498673689350  0.674380528081  0.253267293610  1  1  1
0.500993004317  0.355139266887  0.245114308508  1  1  1
0.249899765340  0.021578122558  0.245008760839  1  1  1
0.248448553598  0.689074687970  0.245561141488  1  1  1
0.249982666112  0.355935914061  0.245500101722  1  1  1
0.750099394673  0.022016615725  0.244947424232  1  1  1
0.750567737734  0.687098828575  0.245417080151  1  1  1
0.750264103193  0.354971378395  0.245064305210  1  1  1

P
0
60
0.374842400028  0.091674929200  0.995675234383  1  1  1
0.374598007640  0.756785271137  0.997278173144  1  1  1
0.375999411754  0.425723540641  0.996079955706  1  1  1
0.875040030286  0.091809468304  0.995630956559  1  1  1
0.874616958517  0.758319746030  0.995650458717  1  1  1
0.875108742581  0.425028486771  0.995616048149  1  1  1
0.375000000004  0.083329997984  0.130439996734  0  0  0
0.375000000004  0.749999999849  0.130439996734  0  0  0
0.375000000004  0.416669994571  0.130439996734  0  0  0
0.875000000095  0.083329997984  0.130439996734  0  0  0
0.875000000095  0.749999999849  0.130439996734  0  0  0
0.875000000095  0.416669994571  0.130439996734  0  0  0
0.374841099845  0.091603782917  0.265216251531  1  1  1
0.374612541292  0.756671758952  0.263615363953  1  1  1
0.376040919234  0.425724109047  0.264754367498  1  1  1
0.875044521746  0.091725688516  0.265259856080  1  1  1
0.874647274615  0.758310971789  0.265225076604  1  1  1
0.875118261924  0.424975614963  0.265267945709  1  1  1
0.125066532108  0.091761604734  0.995633326312  1  1  1
0.123995514030  0.759192749345  0.995497296827  1  1  1
0.124978215779  0.425625027893  0.995535732981  1  1  1
0.624986622036  0.091675569654  0.995667766127  1  1  1
0.624059516260  0.755485035065  0.996916928213  1  1  1
0.625664930075  0.424737769206  0.995618618948  1  1  1
0.000140532261  0.248065645818  0.066457505698  1  1  1
0.999892750485  0.914629775436  0.066513477037  1  1  1
0.999881359110  0.581417886151  0.066452041833  1  1  1
0.499909759818  0.247927166152  0.066520422271  1  1  1
0.499830659030  0.914324401747  0.066446501322  1  1  1
0.500165961503  0.582273674941  0.066960874935  1  1  1
0.250232922342  0.248459269253  0.066306564998  1  1  1
0.250134494660  0.914534770864  0.066661958228  1  1  1
0.250026332760  0.581681222692  0.066337545316  1  1  1
0.750197139448  0.247780010230  0.066564963104  1  1  1
0.749770853107  0.914505178254  0.066510133711  1  1  1
0.749708532530  0.580730933065  0.066637323446  1  1  1
0.125000000022  0.083329997984  0.130439996734  0  0  0
0.125000000022  0.749999999849  0.130439996734  0  0  0
0.125000000022  0.416669994571  0.130439996734  0  0  0
0.624999999984  0.083329997984  0.130439996734  0  0  0
0.624999999984  0.749999999849  0.130439996734  0  0  0
0.624999999984  0.416669994571  0.130439996734  0  0  0
0.000146086770  0.248026406635  0.194415661956  1  1  1
0.999905984187  0.914587661712  0.194347624693  1  1  1
0.999894429811  0.581381809640  0.194420223870  1  1  1
0.499913729922  0.247883143014  0.194349494973  1  1  1
0.499830068339  0.914286238156  0.194428429894  1  1  1
0.500187357069  0.582255086218  0.193874497116  1  1  1
0.250235987123  0.248439904284  0.194582219820  1  1  1
0.250145571455  0.914485755502  0.194200455036  1  1  1
0.250024017382  0.581662012907  0.194537810458  1  1  1
0.750200511119  0.247739084305  0.194297769095  1  1  1
0.749765128370  0.914466056548  0.194351369447  1  1  1
0.749704913817  0.580736545114  0.194239770645  1  1  1
0.125070800977  0.091673436600  0.265262017383  1  1  1
0.123999157728  0.759139162885  0.265405986800  1  1  1
0.124977236581  0.425572854608  0.265365995866  1  1  1
0.624994564737  0.091605154020  0.265219327051  1  1  1
0.624096159832  0.755481823735  0.264016845705  1  1  1
0.625671067967  0.424689639747  0.265258965494  1  1  1

H
0
20
0.583510431682  0.678180294938  0.379436912047  1  1  1
0.637461091702  0.489855415556  0.370358432349  1  1  1
0.684465420567  0.736843852602  0.339351527295  1  1  1
0.500633357918  0.729035969290  0.370379465743  1  1  1
0.506049806454  0.629844386331  0.338624713839  1  1  1
0.534478040926  0.826075249410  0.327536728045  1  1  1
0.436119235599  0.816789725159  0.327709648511  1  1  1
0.725081296689  0.742241771041  0.386301769065  1  1  1
0.456629324046  0.557600678681  0.306190226358  1  1  1
0.633940060316  0.496303648372  0.394909217864  1  1  1
0.583716463297  0.677769409888  0.881382857223  1  1  1
0.637492994767  0.489514500592  0.890586248797  1  1  1
0.684183992956  0.736196858980  0.922010069621  1  1  1
0.500893239212  0.728841622461  0.890216297395  1  1  1
0.505921739463  0.629831014092  0.922086318408  1  1  1
0.534814792816  0.825898595084  0.933174819287  1  1  1
0.436435477314  0.816759160331  0.933023295445  1  1  1
0.726971116820  0.740146225415  0.875504022794  1  1  1
0.456268850697  0.557802191987  0.954552801396  1  1  1
0.633363398307  0.495396568490  0.866016004887  1  1  1

O
0
8
0.690009943817  0.707561980515  0.367531940489  1  1  1
0.520037927110  0.672151230714  0.376684975368  1  1  1
0.485486946272  0.823794785772  0.347949833927  1  1  1
0.499643432898  0.600977830341  0.306098718958  1  1  1
0.690166581344  0.706520714925  0.893966338063  1  1  1
0.520209341824  0.671917041665  0.883946898594  1  1  1
0.485802601209  0.823599350635  0.912766650855  1  1  1
0.499345952831  0.601121222879  0.954625718353  1  1  1
