ATOMIC_SPECIES
Ga  Ga_mass  Ga_pesudopotential
P  P_mass  P_pesudopotential
H  H_mass  H_pesudopotential
O  O_mass  O_pesudopotential

NUMERICAL_ORBITAL
Ga_orbital
P_orbital
H_orbital
O_orbital

LATTICE_CONSTANT
1.889727000000

LATTICE_VECTORS
15.605759999987  0.000000000000  0.000000000000
0.000000000000  16.552409999993  0.000000000000
0.000000000000  0.000000000000  30.388121999996

ATOMIC_POSITIONS
Direct

Ga
0
60
0.380109338207  0.169291542000  0.065149725129  1  1  1
0.374839370714  0.831822707597  0.064844159962  1  1  1
0.375118318568  0.490932366027  0.063229574127  1  1  1
0.875295270094  0.164700798641  0.064508719295  1  1  1
0.874913170697  0.831806578575  0.064475452101  1  1  1
0.875920867132  0.497869680003  0.064450060498  1  1  1
0.380151360087  0.169324816386  0.195662457782  1  1  1
0.374855882382  0.831805227788  0.196004118745  1  1  1
0.375175125176  0.490931305999  0.197619416775  1  1  1
0.875306340625  0.164753122961  0.196379395354  1  1  1
0.874913338108  0.831729959399  0.196446945726  1  1  1
0.875936628833  0.497823470221  0.196450906365  1  1  1
0.000309139832  0.023681213767  0.015831266274  1  1  1
0.999331980127  0.688966621602  0.015678590882  1  1  1
0.001686297273  0.355240095210  0.015800700012  1  1  1
0.499702007312  0.025338185835  0.015477500098  1  1  1
0.495763479783  0.674713410593  0.013845771780  1  1  1
0.488897683727  0.310132094357  0.981392538297  1  1  1
0.250891777390  0.024433369708  0.015937795441  1  1  1
0.244416036776  0.685323352566  0.016208644518  1  1  1
0.249540608864  0.360945456970  0.013688928288  1  1  1
0.749111866199  0.024533383823  0.015873767196  1  1  1
0.752409276554  0.687508865689  0.016551495417  1  1  1
0.759581845782  0.353329499802  0.017242952233  1  1  1
0.127467441840  0.166082508352  0.064297851127  1  1  1
0.124867501926  0.831242351671  0.064362000531  1  1  1
0.125100597524  0.497880969973  0.064417432957  1  1  1
0.618699630597  0.167559312203  0.064860209891  1  1  1
0.624304072074  0.832719415952  0.064519560977  1  1  1
0.625449948517  0.497097933657  0.065766849451  1  1  1
0.000000000000  0.000000000000  0.130439996734  0  0  0
0.000000000000  0.666670024140  0.130439996734  0  0  0
0.000000000000  0.333330005400  0.130439996734  0  0  0
0.500000000025  0.000000000000  0.130439996734  0  0  0
0.500000000025  0.666670024140  0.130439996734  0  0  0
0.500000000025  0.333330005400  0.130439996734  0  0  0
0.249999999980  0.000000000000  0.130439996734  0  0  0
0.249999999980  0.666670024140  0.130439996734  0  0  0
0.249999999980  0.333330005400  0.130439996734  0  0  0
0.750000000266  0.000000000000  0.130439996734  0  0  0
0.750000000266  0.666670024140  0.130439996734  0  0  0
0.750000000266  0.333330005400  0.130439996734  0  0  0
0.127510255892  0.166072549594  0.196612308566  1  1  1
0.124863781657  0.831196652550  0.196566800698  1  1  1
0.125146202617  0.497852037612  0.196486102993  1  1  1
0.618768716470  0.167616839454  0.195983560109  1  1  1
0.624332456490  0.832476800563  0.196480679667  1  1  1
0.625493628849  0.497031054326  0.195108665982  1  1  1
0.000334829607  0.023680194270  0.244989380987  1  1  1
0.999385768139  0.688939690954  0.245155483553  1  1  1
0.001829400839  0.355278706232  0.245036266835  1  1  1
0.499730063224  0.025333245019  0.245294458871  1  1  1
0.495831821564  0.674670696707  0.247072873680  1  1  1
0.488965790525  0.310064439292  0.279453151065  1  1  1
0.250945898164  0.024450693482  0.244849991668  1  1  1
0.244470857816  0.685332352863  0.244607657227  1  1  1
0.249611527426  0.360970481567  0.247155537475  1  1  1
0.749150622895  0.024543926563  0.244896546182  1  1  1
0.752458366955  0.687321047454  0.244414447822  1  1  1
0.759678454582  0.353331681051  0.243758682700  1  1  1

P
0
60
0.375018999604  0.094734580198  0.995994380131  1  1  1
0.372927284194  0.752786135844  0.998443252858  1  1  1
0.375662626533  0.424868166531  0.995001649261  1  1  1
0.875018487962  0.092799298569  0.995766514311  1  1  1
0.874304335424  0.759135701329  0.995340908071  1  1  1
0.878044561749  0.426336171647  0.995199550783  1  1  1
0.375000000004  0.083329997984  0.130439996734  0  0  0
0.375000000004  0.749999999849  0.130439996734  0  0  0
0.375000000004  0.416669994571  0.130439996734  0  0  0
0.875000000095  0.083329997984  0.130439996734  0  0  0
0.875000000095  0.749999999849  0.130439996734  0  0  0
0.875000000095  0.416669994571  0.130439996734  0  0  0
0.375069098844  0.094714999661  0.264794079086  1  1  1
0.372958527126  0.752771947965  0.262401701145  1  1  1
0.375787330108  0.424814634513  0.265823638682  1  1  1
0.875038884611  0.092759499035  0.265077766719  1  1  1
0.874357583920  0.759021584120  0.265559527465  1  1  1
0.878203904887  0.426323064800  0.265716144027  1  1  1
0.125165219339  0.092894376859  0.995726537766  1  1  1
0.123485767716  0.759012608045  0.995191833206  1  1  1
0.122583960583  0.427822523544  0.995099781459  1  1  1
0.624968540526  0.094033442364  0.995623347728  1  1  1
0.621992783720  0.751362603805  0.997313696392  1  1  1
0.624464721573  0.409044186324  0.003237347007  1  1  1
0.000536104761  0.248117081461  0.066590498490  1  1  1
0.999956299668  0.915240159936  0.066202744332  1  1  1
0.000011898902  0.582077183863  0.066565018198  1  1  1
0.500605475960  0.256876117561  0.063213046312  1  1  1
0.499555064267  0.915523193527  0.065706179268  1  1  1
0.499011042241  0.577427430299  0.068571847065  1  1  1
0.251461208216  0.251333838042  0.065285210805  1  1  1
0.249845950071  0.915064250092  0.066082045797  1  1  1
0.251078005659  0.580199091717  0.067133723807  1  1  1
0.749789826277  0.246793895054  0.067239147783  1  1  1
0.749897974606  0.915043798535  0.065901293823  1  1  1
0.750200061556  0.580996303009  0.066852100323  1  1  1
0.125000000022  0.083329997984  0.130439996734  0  0  0
0.125000000022  0.749999999849  0.130439996734  0  0  0
0.125000000022  0.416669994571  0.130439996734  0  0  0
0.624999999984  0.083329997984  0.130439996734  0  0  0
0.624999999984  0.749999999849  0.130439996734  0  0  0
0.624999999984  0.416669994571  0.130439996734  0  0  0
0.000584994742  0.248141478784  0.194269042174  1  1  1
0.999954808690  0.915192744382  0.194675099714  1  1  1
0.000043968331  0.582038009803  0.194291070097  1  1  1
0.500665029860  0.256903323043  0.197653243695  1  1  1
0.499613947983  0.915419196540  0.195166233350  1  1  1
0.499084485232  0.577465270815  0.192294574306  1  1  1
0.251481417160  0.251353999615  0.195597042453  1  1  1
0.249842235067  0.915020394473  0.194773939920  1  1  1
0.251094153172  0.580177566407  0.193709364565  1  1  1
0.749823582523  0.246884533672  0.193672514662  1  1  1
0.749887492293  0.914947407002  0.194968038563  1  1  1
0.750233198278  0.580963150951  0.194007142967  1  1  1
0.125213141009  0.092824487036  0.265140108299  1  1  1
0.123533098907  0.758915969783  0.265712775961  1  1  1
0.122699624656  0.427823432063  0.265820228382  1  1  1
0.624995502593  0.093977025084  0.265179639845  1  1  1
0.622099029864  0.751192478373  0.263756894554  1  1  1
0.624541350978  0.409063969700  0.257701769916  1  1  1

H
0
20
0.573236667620  0.677078219641  0.374870706559  1  1  1
0.653165588605  0.466493237357  0.290162313347  1  1  1
0.673107020989  0.714629121535  0.335103878303  1  1  1
0.492200993983  0.740835689281  0.360077154629  1  1  1
0.489375966608  0.636240908927  0.352515750087  1  1  1
0.534172988510  0.815993500215  0.321688807886  1  1  1
0.434263614948  0.805541356537  0.319869073184  1  1  1
0.713651077875  0.707222002280  0.382619935294  1  1  1
0.431425997130  0.537069640799  0.298328192277  1  1  1
0.530982304182  0.540350904321  0.303401515799  1  1  1
0.574007903586  0.676927105857  0.885987855302  1  1  1
0.653157021279  0.466398618335  0.970780357074  1  1  1
0.673325635037  0.714130503316  0.926494866002  1  1  1
0.492965752338  0.740951396857  0.900637335010  1  1  1
0.489740090849  0.636297569407  0.907928419117  1  1  1
0.534643343207  0.815439932690  0.939389042987  1  1  1
0.434683225052  0.805068146168  0.940945064735  1  1  1
0.715494860552  0.705857113100  0.879397791882  1  1  1
0.431305528120  0.537443124461  0.962283396175  1  1  1
0.530826040296  0.540483019337  0.957251790045  1  1  1

O
0
8
0.670956216516  0.683156260148  0.363046368971  1  1  1
0.507272693812  0.678475668819  0.374584672679  1  1  1
0.483527240064  0.812167484437  0.341620671621  1  1  1
0.480623185184  0.575906116796  0.306008041244  1  1  1
0.671744974358  0.682463223421  0.898600479656  1  1  1
0.508095284556  0.678560272602  0.885982285262  1  1  1
0.484140416765  0.811882083488  0.919319737510  1  1  1
0.480568435932  0.576123065734  0.954589288108  1  1  1
