ATOMIC_SPECIES
Al 26.981539 al.lda.lps

LATTICE_CONSTANT
7.50241114482312  // add lattice constant

LATTICE_VECTORS
0.707106781187    0.000000000000    0.000000000000    
0.353553390593    0.612372435696    0.000000000000    
0.000000000000    0.000000000000    12.701705922171765

ATOMIC_POSITIONS
Direct

Al
0.0
22
    -4.0417625962E-30 -4.1084648299E-30  8.7206494023E-05 1 1 1
     3.3333333330E-01  3.3333333330E-01  4.5286453791E-02 1 1 1
     6.6666666670E-01  6.6666666670E-01  9.0758764800E-02 1 1 1
    -4.0284674978E-30 -4.0951697315E-30  1.3594529064E-01 1 1 1
     3.3333333330E-01  3.3333333330E-01  1.8147407154E-01 1 1 1
    -4.0280864330E-30 -4.0947886667E-30  2.2684033127E-01 1 1 1
     5.3333333330E-01  5.3333333330E-01  2.7330560615E-01 1 1 1
     8.6666666670E-01  8.6666666670E-01  3.1861788374E-01 1 1 1
     2.0000000000E-01  2.0000000000E-01  3.6389693134E-01 1 1 1
     5.3333333330E-01  5.3333333330E-01  4.0906967538E-01 1 1 1
     8.6666666670E-01  8.6666666670E-01  4.5454545455E-01 1 1 1
     5.3333333330E-01  5.3333333330E-01  5.0002123372E-01 1 1 1
     2.0000000000E-01  2.0000000000E-01  5.4519397776E-01 1 1 1
     8.6666666670E-01  8.6666666670E-01  5.9047302536E-01 1 1 1
     5.3333333330E-01  5.3333333330E-01  6.3578530295E-01 1 1 1
    -4.0280864330E-30 -4.0947886667E-30  6.8225057783E-01 1 1 1
     3.3333333330E-01  3.3333333330E-01  7.2761683756E-01 1 1 1
    -4.0284674978E-30 -4.0951697315E-30  7.7314561846E-01 1 1 1
     6.6666666670E-01  6.6666666670E-01  8.1833214430E-01 1 1 1
     3.3333333330E-01  3.3333333330E-01  8.6380445531E-01 1 1 1
    -4.0417625962E-30 -4.1084648299E-30  9.0900370261E-01 1 1 1
     6.6666666670E-01  6.6666666670E-01  9.5454545455E-01 1 1 1
