ATOMIC_SPECIES
Al 13 al.lda.lps

LATTICE_CONSTANT
7.50241114482312  // add lattice constant

LATTICE_VECTORS
0.707106781187    0.000000000000    0.000000000000    
0.353553390593    0.612372435696    0.000000000000    
0.000000000000    0.000000000000    12.124355652982    

ATOMIC_POSITIONS
Direct

Al
0.0
21
    0.000000000000    0.000000000000    0.000000000000 1 1 1
    0.333333333333    0.333333333333    0.047619047619 1 1 1
    0.666666666667    0.666666666667    0.095238095238 1 1 1
    0.000000000000    0.000000000000    0.142857142857 1 1 1
    0.333333333333    0.333333333333    0.190476190476 1 1 1
    0.666666666667    0.666666666667    0.238095238095 1 1 1
    0.000000000000    0.000000000000    0.285714285714 1 1 1
    0.333333333333    0.333333333333    0.333333333333 1 1 1
    0.666666666667    0.666666666667    0.380952380952 1 1 1
    0.000000000000    0.000000000000    0.428571428571 1 1 1
    0.333333333333    0.333333333333    0.476190476190 1 1 1
    0.666666666667    0.666666666667    0.523809523810 1 1 1
    0.000000000000    0.000000000000    0.571428571429 1 1 1
    0.333333333333    0.333333333333    0.619047619048 1 1 1
    0.666666666667    0.666666666667    0.666666666667 1 1 1
    0.000000000000    0.000000000000    0.714285714286 1 1 1
    0.333333333333    0.333333333333    0.761904761905 1 1 1
    0.666666666667    0.666666666667    0.809523809524 1 1 1
    0.000000000000    0.000000000000    0.857142857143 1 1 1
    0.333333333333    0.333333333333    0.904761904762 1 1 1
    0.666666666667    0.666666666667    0.952380952381 1 1 1