%BLOCK LATTICE_CART
3.571969374375    0.000000000000    0.000000000000    
-1.785984687187    3.093416219748    0.000000000000    
0.000000000000    0.000000000000    5.915181283964    
%END BLOCK LATTICE_CART
%BLOCK POSITIONS_FRAC
Si    0.333333333333    0.666666666667    0.063100000000
Si    0.666666666667    0.333333333333    0.563100000000
Si    0.333333333333    0.666666666667    0.436900000000
Si    0.666666666667    0.333333333333    0.936900000000
%END BLOCK POSITIONS_FRAC
%BLOCK SPECIES_POT
Si si.gga.recpot
%END BLOCK SPECIES_POT
