%BLOCK LATTICE_CART
   0.001254084986237   2.201455130202627   2.201455125104156
   2.201455114801938   0.001254061606704   2.201455133062389
   2.201455114963813   2.201455138322734   0.001254066712535
%END BLOCK LATTICE_CART
%BLOCK POSITIONS_FRAC
    Mg   0.000000000000000   0.000000000000000   0.000000000000000
%END BLOCK POSITIONS_FRAC
%BLOCK SPECIES_POT
    Mg mg.lda.recpot                                                                          
%END BLOCK SPECIES_POT
