ATOMIC_SPECIES
Ga  Ga_mass  Ga_pesudopotential
P  P_mass  P_pesudopotential
H  H_mass  H_pesudopotential
O  O_mass  O_pesudopotential

NUMERICAL_ORBITAL
Ga_orbital
P_orbital
H_orbital
O_orbital

LATTICE_CONSTANT
1.889727000000

LATTICE_VECTORS
46.817279999960  0.000000000000  0.000000000000
0.000000000000  30.388121999996  0.000000000000
0.000000000000  0.000000000000  49.657229999978

ATOMIC_POSITIONS
Direct

Ga
0
540
0.125034537097  0.064141918104  0.054990936384  1  1  1
0.127305025567  0.064358971131  0.388971651610  1  1  1
0.127286612358  0.064616896915  0.723245532011  1  1  1
0.460537545192  0.064652431743  0.056672915944  1  1  1
0.460538843310  0.064645625813  0.389971480984  1  1  1
0.460620880734  0.064623770179  0.723271838853  1  1  1
0.793939677900  0.064631551325  0.056570452342  1  1  1
0.793911974107  0.064655318282  0.390026644921  1  1  1
0.793970056223  0.064631957068  0.723322219796  1  1  1
0.125185337112  0.064257173587  0.276481309704  1  1  1
0.125188990247  0.064689706634  0.611057231619  1  1  1
0.125179216144  0.064738519080  0.944434801986  1  1  1
0.458504442501  0.064768653912  0.277765334754  1  1  1
0.458526806025  0.064699411182  0.611067309797  1  1  1
0.458477933359  0.064713855876  0.944415882248  1  1  1
0.791823651119  0.064757275124  0.277805222220  1  1  1
0.791854445864  0.064688648212  0.611064391112  1  1  1
0.791832646890  0.064720645927  0.944423454587  1  1  1
0.125612992913  0.064464971086  0.165479691083  1  1  1
0.125282047145  0.063665534355  0.496868707723  1  1  1
0.125289318280  0.063653504583  0.830219455715  1  1  1
0.458609107986  0.063664631779  0.163545816209  1  1  1
0.458606827607  0.063638859314  0.496874794259  1  1  1
0.458590699954  0.063689966547  0.830225822054  1  1  1
0.791967820267  0.063698940382  0.163560978280  1  1  1
0.791945388182  0.063641296101  0.496878729058  1  1  1
0.791946079430  0.063677934539  0.830222585580  1  1  1
0.291985915229  0.064069313638  0.054580427838  1  1  1
0.291840826980  0.064242112522  0.388303613009  1  1  1
0.291918394751  0.064168089800  0.721536270275  1  1  1
0.625250563405  0.064157076712  0.054840891022  1  1  1
0.625172592204  0.064204698965  0.388250422971  1  1  1
0.625239790609  0.064135964181  0.721504076051  1  1  1
0.958298882868  0.064167031768  0.054822778024  1  1  1
0.958596730178  0.064143088230  0.388190193179  1  1  1
0.958604900765  0.064132218570  0.721492980656  1  1  1
0.291875113222  0.064194240822  0.276795702488  1  1  1
0.292063139118  0.064199034965  0.609983582223  1  1  1
0.292067908497  0.064200663745  0.943289667606  1  1  1
0.625333733196  0.064223406079  0.276591962698  1  1  1
0.625390148726  0.064176101098  0.609936985188  1  1  1
0.625387326441  0.064210488150  0.943416946849  1  1  1
0.958729153936  0.064224771158  0.276793142976  1  1  1
0.958745272728  0.064185197407  0.609995848223  1  1  1
0.958700613876  0.064214767363  0.943276773316  1  1  1
0.291811993442  0.064508198494  0.165525056306  1  1  1
0.291961660370  0.064490380105  0.498792467179  1  1  1
0.291959172322  0.064531451349  0.832219162812  1  1  1
0.625286666446  0.064514383682  0.165481977386  1  1  1
0.625298188290  0.064484046305  0.498795736968  1  1  1
0.625284060135  0.064502676937  0.832176215564  1  1  1
0.958662465259  0.064525297111  0.165452519966  1  1  1
0.958637035263  0.064484845141  0.498797891007  1  1  1
0.958635737580  0.064486780756  0.832162681032  1  1  1
0.124969220518  0.196594568603  0.054916676709  1  1  1
0.127456613344  0.196284146861  0.389231730610  1  1  1
0.127299965900  0.196066777108  0.723611855941  1  1  1
0.460536148908  0.196041335186  0.056977988919  1  1  1
0.460576842633  0.196064073457  0.390292479814  1  1  1
0.460746366029  0.196038909909  0.723495541705  1  1  1
0.793942276504  0.196050855350  0.056959316932  1  1  1
0.793947246157  0.196049765452  0.390312176782  1  1  1
0.794074508562  0.196050360210  0.723502568113  1  1  1
0.125147492266  0.196485751282  0.276432345161  1  1  1
0.125228745203  0.196061319500  0.611003811908  1  1  1
0.125322692992  0.196252280327  0.943345114441  1  1  1
0.458529190852  0.196071552165  0.277646757399  1  1  1
0.458564829868  0.196069064410  0.611000189525  1  1  1
0.458498083606  0.196093155632  0.944294583168  1  1  1
0.791859406965  0.196061522519  0.277694698348  1  1  1
0.791887495927  0.196072600849  0.610998483551  1  1  1
0.791848470138  0.196088631543  0.944301614511  1  1  1
0.125535341547  0.196191758558  0.165579830620  1  1  1
0.125420645685  0.198401000386  0.496806688703  1  1  1
0.125385844118  0.197326523129  0.830399308930  1  1  1
0.458706447806  0.197324289226  0.163733079537  1  1  1
0.458787957933  0.197335871616  0.496979975991  1  1  1
0.458652022290  0.198535596983  0.830210022543  1  1  1
0.792058705100  0.197292493871  0.163733681199  1  1  1
0.792126255098  0.197350946064  0.496980669746  1  1  1
0.792010973727  0.198413557073  0.830238167538  1  1  1
0.291991328758  0.196571310668  0.054657599474  1  1  1
0.291855461190  0.196424665300  0.388326432988  1  1  1
0.291905180360  0.196474373189  0.721565679308  1  1  1
0.625240554025  0.196495992297  0.054874069300  1  1  1
0.625244348591  0.196497608355  0.388236430280  1  1  1
0.625226839973  0.196512432481  0.721525449994  1  1  1
0.958284242039  0.196488561976  0.054853773082  1  1  1
0.958588389246  0.196511277968  0.388206072603  1  1  1
0.958594556263  0.196521278756  0.721528969675  1  1  1
0.291849397316  0.196517485826  0.276790630315  1  1  1
0.292029648348  0.196537751107  0.609862323857  1  1  1
0.292014477438  0.196543747227  0.943244459016  1  1  1
0.625348471500  0.196526604985  0.276585271288  1  1  1
0.625357247453  0.196551568714  0.609846063111  1  1  1
0.625364439420  0.196533383622  0.943253180432  1  1  1
0.958704414765  0.196534698723  0.276570286669  1  1  1
0.958715045722  0.196538758803  0.609879039631  1  1  1
0.958671873064  0.196514151597  0.943179962901  1  1  1
0.291805206253  0.196188269144  0.165567171085  1  1  1
0.291965036057  0.196193986239  0.498800106832  1  1  1
0.291973030161  0.196155014698  0.832241858518  1  1  1
0.625307689038  0.196176961531  0.165494876198  1  1  1
0.625299941078  0.196202325190  0.498801165179  1  1  1
0.625303448859  0.196188261178  0.832198856350  1  1  1
0.958672197316  0.196164305140  0.165491480980  1  1  1
0.958646822380  0.196207434087  0.498802927865  1  1  1
0.958642348628  0.196196921238  0.832180951648  1  1  1
0.999302136658  0.015878704410  0.009020937169  1  1  1
0.000549199857  0.015902458782  0.342363288725  1  1  1
0.000464195345  0.016001993448  0.675744321660  1  1  1
0.333749679691  0.015944981973  0.009022155079  1  1  1
0.332656604113  0.015808403485  0.342326405857  1  1  1
0.333738992375  0.015985892857  0.675714115742  1  1  1
0.667062606781  0.015981235069  0.009110407178  1  1  1
0.665907100986  0.015931625879  0.342401793902  1  1  1
0.667008495559  0.016027832222  0.675731256157  1  1  1
0.332412927334  0.012715291500  0.225656286616  1  1  1
0.332625392742  0.012883269309  0.559226938956  1  1  1
0.332618606984  0.012726895452  0.892551874612  1  1  1
0.665951311092  0.012776106282  0.225860169915  1  1  1
0.665968930389  0.012865809862  0.559225636446  1  1  1
0.665956104756  0.012776037331  0.892555432219  1  1  1
0.999275925647  0.012935689224  0.225936640718  1  1  1
0.999316241987  0.012853311197  0.559214474067  1  1  1
0.999300078722  0.012751816742  0.892550601714  1  1  1
0.000976139066  0.015784908834  0.117799487267  1  1  1
0.000722941764  0.016022794537  0.451071250701  1  1  1
0.000724535859  0.015993057423  0.784407043048  1  1  1
0.332426198706  0.015965867745  0.117767885709  1  1  1
0.334032763964  0.016002138657  0.451091532121  1  1  1
0.334046337431  0.015932530257  0.784396529035  1  1  1
0.667387624572  0.015998294432  0.117766141980  1  1  1
0.667385737199  0.016011135657  0.451082381272  1  1  1
0.667383028956  0.015982541045  0.784410977410  1  1  1
0.166080492097  0.015736340004  0.009099586303  1  1  1
0.166039300648  0.015565741999  0.340762921072  1  1  1
0.166137111457  0.015651309124  0.675801749090  1  1  1
0.499412727285  0.015651220737  0.009151728230  1  1  1
0.499253253166  0.015661767727  0.342463859382  1  1  1
0.499460446214  0.015664846517  0.675806644883  1  1  1
0.832719984290  0.015632629507  0.009140505728  1  1  1
0.832701713385  0.015574845606  0.342478411534  1  1  1
0.832828676848  0.015644460757  0.675804543586  1  1  1
0.165589498356  0.008442348636  0.224056581473  1  1  1
0.165570230741  0.015373140876  0.559244104937  1  1  1
0.165579111378  0.015340312925  0.892562408063  1  1  1
0.498889749441  0.015373087965  0.225910027429  1  1  1
0.498900167136  0.015388345405  0.559251649829  1  1  1
0.498886446530  0.015364231088  0.892582864903  1  1  1
0.832237612706  0.015326643364  0.225873750794  1  1  1
0.832242082006  0.015380151890  0.559241323748  1  1  1
0.832241098952  0.015351924420  0.892574947328  1  1  1
0.167502540644  0.015645719011  0.117989921188  1  1  1
0.163189804104  0.980539852079  0.436046961641  1  1  1
0.163223282554  0.980553147298  0.769488815730  1  1  1
0.496493284776  0.980538772219  0.102837234172  1  1  1
0.496537897384  0.980517587736  0.436115046475  1  1  1
0.496543614582  0.980547137132  0.769463468480  1  1  1
0.829889066440  0.980547202154  0.102859864548  1  1  1
0.829873851099  0.980511696122  0.436114024319  1  1  1
0.829877734277  0.980535294755  0.769470654458  1  1  1
0.083164289619  0.015835299489  0.008906263741  1  1  1
0.083569932692  0.015873467114  0.340858333890  1  1  1
0.083583213264  0.015973310305  0.675719864136  1  1  1
0.416871131917  0.015932266460  0.009062693593  1  1  1
0.416714156002  0.015869808613  0.342377127041  1  1  1
0.416904554917  0.015968556719  0.675713371305  1  1  1
0.750214381495  0.015937176670  0.009084000084  1  1  1
0.750041152183  0.015868170912  0.342379302064  1  1  1
0.750230846253  0.015984790419  0.675715747097  1  1  1
0.083332403686  0.018478694632  0.228565799623  1  1  1
0.083025504269  0.018853207485  0.561539757540  1  1  1
0.083000663028  0.018757442901  0.894835054362  1  1  1
0.416300835014  0.018687998221  0.228087298770  1  1  1
0.416350504750  0.018876994330  0.561544157035  1  1  1
0.416316758520  0.018774831647  0.894834069060  1  1  1
0.749669527724  0.018774238891  0.228147760747  1  1  1
0.749687016623  0.018882751437  0.561549141618  1  1  1
0.749676366058  0.018803182869  0.894847387604  1  1  1
0.083942207025  0.015504475512  0.119559621210  1  1  1
0.083856843880  0.012685297968  0.453324523789  1  1  1
0.083809112141  0.012584130741  0.786758642805  1  1  1
0.416737786189  0.012502926548  0.120147773541  1  1  1
0.417098330162  0.012613660193  0.453422447775  1  1  1
0.417121847917  0.012582264763  0.786730426608  1  1  1
0.750488367953  0.012608067771  0.120124082548  1  1  1
0.750470809875  0.012601547860  0.453417221128  1  1  1
0.750468127605  0.012585999552  0.786737489447  1  1  1
0.249994642171  0.015847501237  0.007630367627  1  1  1
0.249544852991  0.015884657540  0.340798997356  1  1  1
0.249860412017  0.015962181173  0.674419794596  1  1  1
0.583178928618  0.015927778314  0.007810467761  1  1  1
0.582905462107  0.015979846254  0.341064379395  1  1  1
0.583178795302  0.015987210416  0.674423180236  1  1  1
0.916323100437  0.015931439187  0.007725350817  1  1  1
0.916538653051  0.015874843246  0.341075085565  1  1  1
0.916546674712  0.015942662863  0.674426309853  1  1  1
0.248322439716  0.015528933149  0.228185601919  1  1  1
0.249738606710  0.018844322932  0.563199684620  1  1  1
0.249768726708  0.018550484488  0.896401245958  1  1  1
0.583050305831  0.018762927610  0.229835494172  1  1  1
0.583069405449  0.018872951381  0.563223583711  1  1  1
0.583070388554  0.018731361588  0.896486851338  1  1  1
0.916412889347  0.018640040149  0.229777546552  1  1  1
0.916415196826  0.018825328149  0.563185875640  1  1  1
0.916405528546  0.018621263821  0.896423237715  1  1  1
0.249571729031  0.015684743306  0.118023163422  1  1  1
0.252163870895  0.016022895781  0.451081943676  1  1  1
0.252167137356  0.015971522897  0.784384217847  1  1  1
0.585493782360  0.016032004974  0.117770925083  1  1  1
0.585492973346  0.016047074749  0.451098227203  1  1  1
0.585490607789  0.016045312908  0.784418593194  1  1  1
0.918954409197  0.015909031167  0.117795811085  1  1  1
0.918827933199  0.016050819338  0.451091326071  1  1  1
0.918825982917  0.016017849783  0.784403189855  1  1  1
0.041603242824  0.064078314096  0.054832699097  1  1  1
0.043165090447  0.064113168997  0.388456996967  1  1  1
0.043099156556  0.064181973241  0.721836616867  1  1  1
0.376343530782  0.064177617820  0.055206507508  1  1  1
0.376333507600  0.064169263839  0.388503416483  1  1  1
0.376415686530  0.064201173969  0.721864540276  1  1  1
0.709751604223  0.064192480746  0.055173212525  1  1  1
0.709677229057  0.064146440755  0.388493390075  1  1  1
0.709740977317  0.064171735170  0.721847112396  1  1  1
0.041342724319  0.064486106797  0.277728281111  1  1  1
0.041391199971  0.064466730650  0.611050807035  1  1  1
0.041326156334  0.064471851133  0.944436141099  1  1  1
0.374693319654  0.064483038183  0.277875576534  1  1  1
0.374712194518  0.064484252663  0.611054362097  1  1  1
0.374705363491  0.064475243676  0.944416099782  1  1  1
0.707983451772  0.064480526197  0.277842316013  1  1  1
0.708032014331  0.064467926885  0.611045633521  1  1  1
0.708053227751  0.064477982251  0.944430957090  1  1  1
0.041296846970  0.064596600197  0.165425611423  1  1  1
0.041416466806  0.064600267532  0.498890148265  1  1  1
0.041402262649  0.064626710295  0.832245208218  1  1  1
0.374604787012  0.064664895431  0.165568288544  1  1  1
0.374719167743  0.064616536988  0.498887667872  1  1  1
0.374725459009  0.064646488892  0.832273082082  1  1  1
0.708051871955  0.064654795087  0.165577441718  1  1  1
0.708062241784  0.064612386771  0.498891228019  1  1  1
0.708069164273  0.064627907609  0.832258328381  1  1  1
0.208191981447  0.064078083877  0.054671200770  1  1  1
0.205867544382  0.064240984473  0.388602657919  1  1  1
0.206009133219  0.064314537084  0.722017024833  1  1  1
0.539322374519  0.064316015592  0.055351893380  1  1  1
0.539276919683  0.064305394678  0.388672631555  1  1  1
0.539335413041  0.064290908441  0.722002509456  1  1  1
0.872618137118  0.064297440304  0.055340751582  1  1  1
0.872681124021  0.064309516352  0.388697956711  1  1  1
0.872700909615  0.064296454236  0.722021012163  1  1  1
0.207982091062  0.064059844591  0.276752318711  1  1  1
0.207939959376  0.064365455972  0.611092185217  1  1  1
0.207967450363  0.064395309727  0.944423158168  1  1  1
0.541261675590  0.064371310559  0.277738087565  1  1  1
0.541280377633  0.064368061463  0.611088463975  1  1  1
0.541268377906  0.064377654612  0.944438057180  1  1  1
0.874601927349  0.064411756339  0.277815650782  1  1  1
0.874621787799  0.064373122263  0.611099952862  1  1  1
0.874597288669  0.064369904817  0.944433493276  1  1  1
0.207804068284  0.064169334459  0.165441899074  1  1  1
0.208247954916  0.065987211995  0.499023905700  1  1  1
0.208253106350  0.066290296568  0.832420343470  1  1  1
0.541583750451  0.066307874918  0.165733932748  1  1  1
0.541589887372  0.066184255773  0.499053651376  1  1  1
0.541559248886  0.066261509061  0.832404852450  1  1  1
0.874961712872  0.066446028742  0.165767272200  1  1  1
0.874918256015  0.066173865300  0.499045608737  1  1  1
0.874928891572  0.066301427450  0.832411068496  1  1  1
0.000000000000  0.130439996734  0.000000000000  0  0  0
0.000000000000  0.130439996734  0.333333333334  0  0  0
0.000000000000  0.130439996734  0.666666666666  0  0  0
0.333333333334  0.130439996734  0.000000000000  0  0  0
0.333333333334  0.130439996734  0.333333333334  0  0  0
0.333333333334  0.130439996734  0.666666666666  0  0  0
0.666666666666  0.130439996734  0.000000000000  0  0  0
0.666666666666  0.130439996734  0.333333333334  0  0  0
0.666666666666  0.130439996734  0.666666666666  0  0  0
0.000000000000  0.130439996734  0.222223341380  0  0  0
0.000000000000  0.130439996734  0.555556674713  0  0  0
0.000000000000  0.130439996734  0.888890008047  0  0  0
0.333333333334  0.130439996734  0.222223341380  0  0  0
0.333333333334  0.130439996734  0.555556674713  0  0  0
0.333333333334  0.130439996734  0.888890008047  0  0  0
0.666666666666  0.130439996734  0.222223341380  0  0  0
0.666666666666  0.130439996734  0.555556674713  0  0  0
0.666666666666  0.130439996734  0.888890008047  0  0  0
0.000000000000  0.130439996734  0.111110001801  0  0  0
0.000000000000  0.130439996734  0.444443335133  0  0  0
0.000000000000  0.130439996734  0.777776668467  0  0  0
0.333333333334  0.130439996734  0.111110001801  0  0  0
0.333333333334  0.130439996734  0.444443335133  0  0  0
0.333333333334  0.130439996734  0.777776668467  0  0  0
0.666666666666  0.130439996734  0.111110001801  0  0  0
0.666666666666  0.130439996734  0.444443335133  0  0  0
0.666666666666  0.130439996734  0.777776668467  0  0  0
0.166666666675  0.130439996734  0.000000000000  0  0  0
0.166666666675  0.130439996734  0.333333333334  0  0  0
0.166666666675  0.130439996734  0.666666666666  0  0  0
0.500000000009  0.130439996734  0.000000000000  0  0  0
0.500000000009  0.130439996734  0.333333333334  0  0  0
0.500000000009  0.130439996734  0.666666666666  0  0  0
0.833333333341  0.130439996734  0.000000000000  0  0  0
0.833333333341  0.130439996734  0.333333333334  0  0  0
0.833333333341  0.130439996734  0.666666666666  0  0  0
0.166666666675  0.130439996734  0.222223341380  0  0  0
0.166666666675  0.130439996734  0.555556674713  0  0  0
0.166666666675  0.130439996734  0.888890008047  0  0  0
0.500000000009  0.130439996734  0.222223341380  0  0  0
0.500000000009  0.130439996734  0.555556674713  0  0  0
0.500000000009  0.130439996734  0.888890008047  0  0  0
0.833333333341  0.130439996734  0.222223341380  0  0  0
0.833333333341  0.130439996734  0.555556674713  0  0  0
0.833333333341  0.130439996734  0.888890008047  0  0  0
0.166666666675  0.130439996734  0.111110001801  0  0  0
0.166666666675  0.130439996734  0.444443335133  0  0  0
0.166666666675  0.130439996734  0.777776668467  0  0  0
0.500000000009  0.130439996734  0.111110001801  0  0  0
0.500000000009  0.130439996734  0.444443335133  0  0  0
0.500000000009  0.130439996734  0.777776668467  0  0  0
0.833333333341  0.130439996734  0.111110001801  0  0  0
0.833333333341  0.130439996734  0.444443335133  0  0  0
0.833333333341  0.130439996734  0.777776668467  0  0  0
0.083333333327  0.130439996734  0.000000000000  0  0  0
0.083333333327  0.130439996734  0.333333333334  0  0  0
0.083333333327  0.130439996734  0.666666666666  0  0  0
0.416666666661  0.130439996734  0.000000000000  0  0  0
0.416666666661  0.130439996734  0.333333333334  0  0  0
0.416666666661  0.130439996734  0.666666666666  0  0  0
0.749999999993  0.130439996734  0.000000000000  0  0  0
0.749999999993  0.130439996734  0.333333333334  0  0  0
0.749999999993  0.130439996734  0.666666666666  0  0  0
0.083333333327  0.130439996734  0.222223341380  0  0  0
0.083333333327  0.130439996734  0.555556674713  0  0  0
0.083333333327  0.130439996734  0.888890008047  0  0  0
0.416666666661  0.130439996734  0.222223341380  0  0  0
0.416666666661  0.130439996734  0.555556674713  0  0  0
0.416666666661  0.130439996734  0.888890008047  0  0  0
0.749999999993  0.130439996734  0.222223341380  0  0  0
0.749999999993  0.130439996734  0.555556674713  0  0  0
0.749999999993  0.130439996734  0.888890008047  0  0  0
0.083333333327  0.130439996734  0.111110001801  0  0  0
0.083333333327  0.130439996734  0.444443335133  0  0  0
0.083333333327  0.130439996734  0.777776668467  0  0  0
0.416666666661  0.130439996734  0.111110001801  0  0  0
0.416666666661  0.130439996734  0.444443335133  0  0  0
0.416666666661  0.130439996734  0.777776668467  0  0  0
0.749999999993  0.130439996734  0.111110001801  0  0  0
0.749999999993  0.130439996734  0.444443335133  0  0  0
0.749999999993  0.130439996734  0.777776668467  0  0  0
0.250000000089  0.130439996734  0.000000000000  0  0  0
0.250000000089  0.130439996734  0.333333333334  0  0  0
0.250000000089  0.130439996734  0.666666666666  0  0  0
0.583333333421  0.130439996734  0.000000000000  0  0  0
0.583333333421  0.130439996734  0.333333333334  0  0  0
0.583333333421  0.130439996734  0.666666666666  0  0  0
0.916666666755  0.130439996734  0.000000000000  0  0  0
0.916666666755  0.130439996734  0.333333333334  0  0  0
0.916666666755  0.130439996734  0.666666666666  0  0  0
0.250000000089  0.130439996734  0.222223341380  0  0  0
0.250000000089  0.130439996734  0.555556674713  0  0  0
0.250000000089  0.130439996734  0.888890008047  0  0  0
0.583333333421  0.130439996734  0.222223341380  0  0  0
0.583333333421  0.130439996734  0.555556674713  0  0  0
0.583333333421  0.130439996734  0.888890008047  0  0  0
0.916666666755  0.130439996734  0.222223341380  0  0  0
0.916666666755  0.130439996734  0.555556674713  0  0  0
0.916666666755  0.130439996734  0.888890008047  0  0  0
0.250000000089  0.130439996734  0.111110001801  0  0  0
0.250000000089  0.130439996734  0.444443335133  0  0  0
0.250000000089  0.130439996734  0.777776668467  0  0  0
0.583333333421  0.130439996734  0.111110001801  0  0  0
0.583333333421  0.130439996734  0.444443335133  0  0  0
0.583333333421  0.130439996734  0.777776668467  0  0  0
0.916666666755  0.130439996734  0.111110001801  0  0  0
0.916666666755  0.130439996734  0.444443335133  0  0  0
0.916666666755  0.130439996734  0.777776668467  0  0  0
0.041655892861  0.196663151193  0.054731307524  1  1  1
0.043191967924  0.196533259557  0.388492433165  1  1  1
0.043189278694  0.196503153264  0.721930697416  1  1  1
0.376456719854  0.196495478571  0.055324624835  1  1  1
0.376460845613  0.196525496882  0.388606947938  1  1  1
0.376423042830  0.196448811445  0.721882437368  1  1  1
0.709847911857  0.196484199372  0.055278474965  1  1  1
0.709844629769  0.196479219251  0.388635097712  1  1  1
0.709760615688  0.196482834731  0.721867822600  1  1  1
0.041369707591  0.196317117615  0.277607049123  1  1  1
0.041369814931  0.196272800483  0.611021456058  1  1  1
0.041270689282  0.196329239834  0.944188066440  1  1  1
0.374699082586  0.196339010013  0.277766410981  1  1  1
0.374698532733  0.196274934009  0.611008870955  1  1  1
0.374703088587  0.196315622139  0.944331195660  1  1  1
0.708042694416  0.196289240290  0.277710051177  1  1  1
0.708015698144  0.196286981312  0.611004236190  1  1  1
0.708046715503  0.196310660164  0.944350442388  1  1  1
0.041382324767  0.196075745741  0.165527353765  1  1  1
0.041442177664  0.196082620562  0.498921813736  1  1  1
0.041488412924  0.196033292448  0.832388942042  1  1  1
0.374668415926  0.196051245054  0.165721058109  1  1  1
0.374694553839  0.196017741911  0.498969404764  1  1  1
0.374863834892  0.196075743243  0.832366743283  1  1  1
0.708123351432  0.196013234465  0.165717432348  1  1  1
0.708036927212  0.196023647582  0.498969269160  1  1  1
0.708205489118  0.196085776624  0.832355563102  1  1  1
0.208164088533  0.196602568438  0.054680702536  1  1  1
0.205805549682  0.196434366507  0.388675568369  1  1  1
0.205886611608  0.196352927835  0.722095854608  1  1  1
0.539200843133  0.196346471108  0.055432694409  1  1  1
0.539214511726  0.196362623741  0.388754262356  1  1  1
0.539216899498  0.196369129647  0.722084435286  1  1  1
0.872503012847  0.196365088837  0.055415581630  1  1  1
0.872563960497  0.196351546027  0.388779547586  1  1  1
0.872580295733  0.196365984097  0.722096304879  1  1  1
0.207955574662  0.196774955990  0.276569363367  1  1  1
0.207962170817  0.196495959229  0.610781766871  1  1  1
0.207967597064  0.196661696589  0.943356520642  1  1  1
0.541290382422  0.196504788376  0.277396175937  1  1  1
0.541295835877  0.196504016756  0.610747525526  1  1  1
0.541284306769  0.196486596675  0.944160709352  1  1  1
0.874632720466  0.196450221062  0.277561159596  1  1  1
0.874640531914  0.196481063557  0.610820734676  1  1  1
0.874608561125  0.196506560929  0.944130544632  1  1  1
0.207787752015  0.196489218460  0.165469670918  1  1  1
0.208048058930  0.195723513142  0.498924625502  1  1  1
0.208078808784  0.195664139510  0.832310169430  1  1  1
0.541389737695  0.195686389472  0.165605839243  1  1  1
0.541393540293  0.195701330701  0.498927841478  1  1  1
0.541362050568  0.195712217089  0.832284346921  1  1  1
0.874736838904  0.195679424873  0.165624387681  1  1  1
0.874722953879  0.195701360447  0.498923585714  1  1  1
0.874718794743  0.195728677578  0.832282437254  1  1  1
0.999288583593  0.244696777621  0.008949278436  1  1  1
0.000563224511  0.244661191882  0.342320126646  1  1  1
0.000467858648  0.244597164817  0.675746725061  1  1  1
0.333756428599  0.244634138593  0.009019265634  1  1  1
0.332692774107  0.244755056578  0.342342136939  1  1  1
0.333727809685  0.244614887899  0.675710532220  1  1  1
0.667075879709  0.244603660215  0.009105542189  1  1  1
0.667072738378  0.244646627735  0.342392347160  1  1  1
0.666983442072  0.244580822351  0.675729113434  1  1  1
0.332377980720  0.248127104179  0.225801842569  1  1  1
0.332669362034  0.247914729934  0.559228502979  1  1  1
0.332665401590  0.248034650632  0.892576879816  1  1  1
0.666000029069  0.248027729375  0.225881151001  1  1  1
0.666014192291  0.247914767397  0.559231278608  1  1  1
0.666028072990  0.247993496515  0.892563472638  1  1  1
0.999354809192  0.247982307362  0.225936714818  1  1  1
0.999379320055  0.247883167801  0.559219726583  1  1  1
0.999332008716  0.248043682560  0.892564053976  1  1  1
0.000980397621  0.244801195432  0.117830707860  1  1  1
0.000717264729  0.244572608041  0.451079727118  1  1  1
0.000719314460  0.244614121891  0.784452873145  1  1  1
0.332403490116  0.244649974748  0.117818580298  1  1  1
0.334018940068  0.244607143546  0.451124148720  1  1  1
0.334050909583  0.244656246890  0.784416069362  1  1  1
0.667385832091  0.244613228571  0.117806875340  1  1  1
0.667377704344  0.244602687129  0.451118229107  1  1  1
0.667399787736  0.244604769120  0.784431734891  1  1  1
0.166049121500  0.244691171361  0.008711000569  1  1  1
0.166128262193  0.244993289407  0.340774380698  1  1  1
0.166115194843  0.244892355885  0.675804504541  1  1  1
0.499398975849  0.244893669896  0.009147815385  1  1  1
0.499363539257  0.244895428130  0.342467611273  1  1  1
0.499468521084  0.244888222295  0.675797537174  1  1  1
0.832699903298  0.244899590894  0.009138993210  1  1  1
0.832797142957  0.244959341963  0.342467951553  1  1  1
0.832836885802  0.244918607898  0.675792421048  1  1  1
0.165570880659  0.252373266708  0.224086318342  1  1  1
0.165576377576  0.247670789930  0.559156984969  1  1  1
0.165626824815  0.247965019407  0.892341631713  1  1  1
0.498901330737  0.247798925739  0.225788987670  1  1  1
0.498900722328  0.247711663539  0.559137821236  1  1  1
0.498929425317  0.247760659082  0.892503443991  1  1  1
0.832269372645  0.247841457208  0.225775507291  1  1  1
0.832244212537  0.247718981468  0.559131014500  1  1  1
0.832278242140  0.247790168673  0.892497132103  1  1  1
0.167509499927  0.244953717708  0.118016901470  1  1  1
0.163197079045  0.282710544382  0.436014665068  1  1  1
0.163174711091  0.282684117359  0.769536328412  1  1  1
0.496436452708  0.282689317528  0.102882369498  1  1  1
0.496488192412  0.282709965219  0.436174244461  1  1  1
0.496542621815  0.282737559538  0.769425852116  1  1  1
0.829829816005  0.282693133940  0.102881791921  1  1  1
0.829820526965  0.282717998125  0.436172328966  1  1  1
0.829873986167  0.282729525032  0.769418611646  1  1  1
0.083169204735  0.244754949863  0.007563488980  1  1  1
0.083613268143  0.244733008683  0.340906817629  1  1  1
0.083584285430  0.244604577151  0.675733204201  1  1  1
0.416870036608  0.244655930163  0.009063725515  1  1  1
0.416744239205  0.244711112110  0.342373753178  1  1  1
0.416909329363  0.244614104939  0.675715755589  1  1  1
0.750220989960  0.244647365398  0.009086869541  1  1  1
0.750244497995  0.244703936275  0.342374871647  1  1  1
0.750229750732  0.244609517290  0.675708971093  1  1  1
0.083330267878  0.244697022095  0.228407375380  1  1  1
0.082978100137  0.242212661225  0.561549742545  1  1  1
0.082967229533  0.244676432661  0.894651191833  1  1  1
0.416222889153  0.244579151362  0.228033368683  1  1  1
0.416322096069  0.242133396327  0.561558010172  1  1  1
0.416283300481  0.244608698382  0.894708131031  1  1  1
0.749664431003  0.244563967059  0.228040627278  1  1  1
0.749656265371  0.242116763928  0.561559568209  1  1  1
0.749652283618  0.244576752090  0.894725232090  1  1  1
0.083923383180  0.245127446641  0.119535575117  1  1  1
0.083860658828  0.248112704806  0.453347844984  1  1  1
0.083815086158  0.248095985728  0.787947599819  1  1  1
0.416744191724  0.248194260881  0.121400712300  1  1  1
0.417126142783  0.248061402418  0.454666072414  1  1  1
0.417119936423  0.248198318104  0.786720220820  1  1  1
0.750497494934  0.248094024919  0.121360624175  1  1  1
0.750507311719  0.248078206627  0.454670856199  1  1  1
0.750497503935  0.248200428450  0.786773103626  1  1  1
0.249966300623  0.244674850498  0.007489357432  1  1  1
0.249578932817  0.244684753240  0.340787636905  1  1  1
0.249853736585  0.244636557913  0.674348155243  1  1  1
0.583179006477  0.244669961218  0.007717609438  1  1  1
0.583163928989  0.244652857649  0.341019007504  1  1  1
0.583168121629  0.244612587830  0.674344733924  1  1  1
0.916317013316  0.244676586924  0.007645842472  1  1  1
0.916546542537  0.244704011768  0.340998930513  1  1  1
0.916546761475  0.244652462745  0.674356536757  1  1  1
0.248139915484  0.245144549718  0.228199793150  1  1  1
0.249707802992  0.244664768714  0.561708314253  1  1  1
0.249779098325  0.245069735666  0.894881761696  1  1  1
0.583053804097  0.244803874721  0.228324184916  1  1  1
0.583048907126  0.244655901296  0.561717433300  1  1  1
0.583054334060  0.244855946707  0.894965320762  1  1  1