ATOMIC_SPECIES
Ga  Ga_mass  Ga_pesudopotential
P  P_mass  P_pesudopotential
H  H_mass  H_pesudopotential
O  O_mass  O_pesudopotential

NUMERICAL_ORBITAL
Ga_orbital
P_orbital
H_orbital
O_orbital

LATTICE_CONSTANT
1.889727000000

LATTICE_VECTORS
46.817279999960  0.000000000000  0.000000000000
0.000000000000  30.388121999996  0.000000000000
0.000000000000  0.000000000000  49.657229999978

ATOMIC_POSITIONS
Direct

Ga
0
540
0.127027423546  0.064626056366  0.056793192546  1  1  1
0.127082816054  0.064624804762  0.390088416686  1  1  1
0.127017937095  0.064605438787  0.723464430881  1  1  1
0.460464472004  0.064616761611  0.056767417927  1  1  1
0.460479641672  0.064616503197  0.390095108241  1  1  1
0.460445787119  0.064623529750  0.723457419640  1  1  1
0.793760629845  0.064628586687  0.056784235537  1  1  1
0.793802949506  0.064634505876  0.390080807925  1  1  1
0.793755836511  0.064618104644  0.723444655662  1  1  1
0.125153310239  0.064748961763  0.277720763804  1  1  1
0.125168303055  0.064748731406  0.611066956070  1  1  1
0.125169485336  0.064746499390  0.944407536146  1  1  1
0.458538122756  0.064746731118  0.277727186099  1  1  1
0.458543570828  0.064763436212  0.611077214076  1  1  1
0.458547316859  0.064754431735  0.944402264032  1  1  1
0.791863987003  0.064752237929  0.277715510786  1  1  1
0.791852072039  0.064757813435  0.611060856027  1  1  1
0.791858355852  0.064747610223  0.944407116395  1  1  1
0.125308831452  0.063755379648  0.163609131897  1  1  1
0.125302586183  0.063730798805  0.496924683621  1  1  1
0.125320082798  0.063741775740  0.830274503697  1  1  1
0.458680033913  0.063742339845  0.163600377070  1  1  1
0.458676634978  0.063735286208  0.496931874016  1  1  1
0.458681561171  0.063746033151  0.830275380586  1  1  1
0.792001894166  0.063753841233  0.163609259181  1  1  1
0.791996126141  0.063737835155  0.496922111358  1  1  1
0.791999626764  0.063745441954  0.830270837052  1  1  1
0.291899962287  0.064135470199  0.054798921123  1  1  1
0.291905847001  0.064129086802  0.388129289639  1  1  1
0.291906157432  0.064125389281  0.721470691492  1  1  1
0.625254533782  0.064133483619  0.054801900382  1  1  1
0.625255692013  0.064137255718  0.388127181133  1  1  1
0.625242424182  0.064139790649  0.721472413960  1  1  1
0.958567243931  0.064141155167  0.054810540456  1  1  1
0.958568854031  0.064155851647  0.388118523763  1  1  1
0.958566663038  0.064128511775  0.721466041905  1  1  1
0.292065320610  0.064206776152  0.276656624248  1  1  1
0.292073275628  0.064210503306  0.610003399921  1  1  1
0.292068299936  0.064206550772  0.943327861456  1  1  1
0.625423213082  0.064209143818  0.276638887991  1  1  1
0.625410805865  0.064222174776  0.609994722755  1  1  1
0.625403155832  0.064206750254  0.943324252830  1  1  1
0.958716671635  0.064219498534  0.276640566870  1  1  1
0.958731756538  0.064210033696  0.609982636504  1  1  1
0.958724825144  0.064212886438  0.943333591039  1  1  1
0.291957262650  0.064474614388  0.165429717662  1  1  1
0.291964743128  0.064467212111  0.498772771286  1  1  1
0.291965333846  0.064465401848  0.832105431868  1  1  1
0.625317407672  0.064476258649  0.165429462738  1  1  1
0.625307501407  0.064484012733  0.498767107632  1  1  1
0.625293328660  0.064479618618  0.832099838173  1  1  1
0.958606812213  0.064482032036  0.165446156163  1  1  1
0.958617771896  0.064483679446  0.498761427052  1  1  1
0.958615668608  0.064477481936  0.832101662201  1  1  1
0.127252652013  0.196079729734  0.056925734753  1  1  1
0.127262185097  0.196091732937  0.390240098312  1  1  1
0.127258307380  0.196103312030  0.723588104768  1  1  1
0.460646267553  0.196089653031  0.056917251319  1  1  1
0.460650167311  0.196103376172  0.390248125941  1  1  1
0.460639807007  0.196093434246  0.723591824704  1  1  1
0.793936070669  0.196075989086  0.056928745134  1  1  1
0.793958539979  0.196080925551  0.390238616445  1  1  1
0.793937005236  0.196090755255  0.723586336743  1  1  1
0.125199697070  0.196133846118  0.277591046680  1  1  1
0.125217581887  0.196136777437  0.610938914858  1  1  1
0.125215061056  0.196133691653  0.944279259563  1  1  1
0.458574765754  0.196142718300  0.277596599952  1  1  1
0.458577903524  0.196137899424  0.610942477198  1  1  1
0.458579167754  0.196124652711  0.944270725697  1  1  1
0.791906251038  0.196124101653  0.277586518510  1  1  1
0.791892792347  0.196125283423  0.610937526686  1  1  1
0.791900866323  0.196126432603  0.944283441998  1  1  1
0.125443141533  0.197496797988  0.163618721263  1  1  1
0.125443700687  0.197565853057  0.496935514481  1  1  1
0.125455941974  0.197494236991  0.830280099589  1  1  1
0.458806165667  0.197539701908  0.163611981094  1  1  1
0.458807051879  0.197537347119  0.496944050951  1  1  1
0.458803950300  0.197510238162  0.830280094467  1  1  1
0.792138788217  0.197460931299  0.163624027212  1  1  1
0.792133345886  0.197486103542  0.496937497051  1  1  1
0.792134644736  0.197481850470  0.830278579692  1  1  1
0.291916030796  0.196528716395  0.054837410874  1  1  1
0.291922240822  0.196545973848  0.388163155706  1  1  1
0.291923826717  0.196545766226  0.721504855173  1  1  1
0.625266688888  0.196526405776  0.054840619522  1  1  1
0.625268411287  0.196536327807  0.388163363371  1  1  1
0.625255783476  0.196522969546  0.721507428036  1  1  1
0.958579575483  0.196517602888  0.054848864946  1  1  1
0.958582582918  0.196514345088  0.388156148461  1  1  1
0.958581120002  0.196532628577  0.721503425126  1  1  1
0.292038047999  0.196562479561  0.276509386917  1  1  1
0.292046960509  0.196567977588  0.609854188006  1  1  1
0.292043523389  0.196546365500  0.943187908360  1  1  1
0.625393605507  0.196564497016  0.276501840439  1  1  1
0.625381952145  0.196549547763  0.609856487029  1  1  1
0.625377746882  0.196544262726  0.943191530732  1  1  1
0.958695668221  0.196530668893  0.276507518896  1  1  1
0.958706092177  0.196546452930  0.609847088411  1  1  1
0.958700528588  0.196542262307  0.943195339755  1  1  1
0.291967301058  0.196234190847  0.165451959871  1  1  1
0.291976427350  0.196253039170  0.498792657546  1  1  1
0.291976909227  0.196239582359  0.832125547410  1  1  1
0.625326912144  0.196238402582  0.165456356579  1  1  1
0.625319367028  0.196235549222  0.498789988169  1  1  1
0.625306440069  0.196227803538  0.832123048667  1  1  1
0.958625303356  0.196217606004  0.165464970395  1  1  1
0.958633350705  0.196227542891  0.498779314424  1  1  1
0.958629044180  0.196227924091  0.832123320664  1  1  1
0.000410799942  0.016092893768  0.009090053502  1  1  1
0.000395927127  0.016086995188  0.342409434929  1  1  1
0.000406085367  0.016068432722  0.675748731637  1  1  1
0.333763212471  0.016057117617  0.009076398863  1  1  1
0.333761469644  0.016037428333  0.342417400387  1  1  1
0.333769059102  0.016055495112  0.675749208816  1  1  1
0.667104653826  0.016071959098  0.009079784500  1  1  1
0.667111654859  0.016055493522  0.342400367764  1  1  1
0.667100343625  0.016058764873  0.675742691796  1  1  1
0.332615166839  0.012838349571  0.225866980279  1  1  1
0.332615418722  0.012837326506  0.559211161948  1  1  1
0.332618252562  0.012849319478  0.892546226778  1  1  1
0.665956331122  0.012885940654  0.225863806337  1  1  1
0.665951517292  0.012863973399  0.559206556732  1  1  1
0.665935981613  0.012884851089  0.892548720219  1  1  1
0.999237447122  0.012891427539  0.225876687838  1  1  1
0.999254047853  0.012859701721  0.559204766583  1  1  1
0.999248554166  0.012878770809  0.892551141094  1  1  1
0.000652991093  0.016135610772  0.117757525280  1  1  1
0.000661311949  0.016089431134  0.451081754183  1  1  1
0.000665843799  0.016102342738  0.784428690557  1  1  1
0.334022066203  0.016083080944  0.117746679153  1  1  1
0.334023759930  0.016063135552  0.451089546483  1  1  1
0.334023848420  0.016089744079  0.784429034927  1  1  1
0.667358149389  0.016114621091  0.117745837599  1  1  1
0.667360111714  0.016073685564  0.451081262990  1  1  1
0.667342476663  0.016095156358  0.784425536499  1  1  1
0.166065989174  0.015704538760  0.009168552784  1  1  1
0.166059437134  0.015679363593  0.342495791817  1  1  1
0.166065578557  0.015688488468  0.675834491044  1  1  1
0.499451845313  0.015690371726  0.009160394725  1  1  1
0.499451226874  0.015667579443  0.342496815915  1  1  1
0.499443257802  0.015691426303  0.675838824685  1  1  1
0.832752347396  0.015713272845  0.009175211952  1  1  1
0.832758000116  0.015710490650  0.342485412268  1  1  1
0.832750456674  0.015691790215  0.675835042214  1  1  1
0.165540946011  0.015378088670  0.225864724890  1  1  1
0.165546292714  0.015367063516  0.559208196013  1  1  1
0.165551804291  0.015365177425  0.892544524653  1  1  1
0.498909711666  0.015370228766  0.225858740756  1  1  1
0.498904827112  0.015366540513  0.559202763463  1  1  1
0.498906378936  0.015375029925  0.892534301976  1  1  1
0.832231315940  0.015401674512  0.225869398048  1  1  1
0.832227732975  0.015373490422  0.559201780402  1  1  1
0.832229474847  0.015379385185  0.892545534431  1  1  1
0.163159276987  0.980594194277  0.102793816827  1  1  1
0.163160750512  0.980565942414  0.436132158308  1  1  1
0.163170117725  0.980564474977  0.769477385426  1  1  1
0.496529629478  0.980570804331  0.102785840154  1  1  1
0.496521541210  0.980551065300  0.436127974670  1  1  1
0.496522846640  0.980575644598  0.769471601040  1  1  1
0.829857896109  0.980598987855  0.102811081556  1  1  1
0.829859437452  0.980575046436  0.436130087273  1  1  1
0.829855051457  0.980567274922  0.769479968453  1  1  1
0.083552401249  0.016003433644  0.009055166047  1  1  1
0.083542838403  0.015987722868  0.342393772420  1  1  1
0.083557406343  0.015985623196  0.675715090145  1  1  1
0.416911890967  0.015986983423  0.009040935995  1  1  1
0.416914976433  0.015969503717  0.342390287963  1  1  1
0.416911644621  0.015988975704  0.675719246561  1  1  1
0.750237422420  0.016000250241  0.009056213015  1  1  1
0.750247082109  0.015989408203  0.342376305500  1  1  1
0.750232350919  0.015983648521  0.675713903059  1  1  1
0.082949038640  0.018966003305  0.228199330429  1  1  1
0.082958973816  0.018933545313  0.561533006599  1  1  1
0.082962938954  0.018940260388  0.894874017763  1  1  1
0.416334806582  0.018930205985  0.228192996966  1  1  1
0.416329617085  0.018924498732  0.561535748880  1  1  1
0.416338582769  0.018943896231  0.894875611967  1  1  1
0.749658878463  0.018958301232  0.228190740746  1  1  1
0.749652408674  0.018920791944  0.561529023245  1  1  1
0.749648965507  0.018931333169  0.894875501936  1  1  1
0.083766649984  0.012729688558  0.121177310520  1  1  1
0.083782267132  0.012679631124  0.454227020357  1  1  1
0.083780403863  0.012708135305  0.787884773337  1  1  1
0.417155591656  0.012686438541  0.121064243221  1  1  1
0.417158051211  0.012674612974  0.454257850621  1  1  1
0.417153256729  0.012710782274  0.787805287504  1  1  1
0.750469052071  0.012726677639  0.121073946499  1  1  1
0.750482576536  0.012683603976  0.454225370809  1  1  1
0.750464397303  0.012705511680  0.787772865923  1  1  1
0.249844762688  0.015996128866  0.007739585092  1  1  1
0.249841896891  0.015960768830  0.341086466691  1  1  1
0.249846485721  0.015983933965  0.674407240030  1  1  1
0.583197839404  0.015992724524  0.007728439408  1  1  1
0.583200898630  0.015971110313  0.341063679001  1  1  1
0.583191086563  0.015989075809  0.674406144461  1  1  1
0.916515677848  0.016020506793  0.007751062742  1  1  1
0.916512610205  0.016012771915  0.341070078833  1  1  1
0.916515321376  0.015994411347  0.674403454668  1  1  1
0.249748151729  0.018890255536  0.229843437327  1  1  1
0.249744759842  0.018881912834  0.563189257656  1  1  1
0.249749790986  0.018913036219  0.896519617741  1  1  1
0.583103055796  0.018880526697  0.229841210331  1  1  1
0.583096087754  0.018865069513  0.563186436198  1  1  1
0.583091804075  0.018882214939  0.896523008663  1  1  1
0.916407342469  0.018953573987  0.229856737640  1  1  1
0.916413630818  0.018890519059  0.563190292083  1  1  1
0.916413754925  0.018916486666  0.896528610553  1  1  1
0.252133044431  0.016151338018  0.117759912837  1  1  1
0.252131412369  0.016126983519  0.451089966328  1  1  1
0.252139446338  0.016162081767  0.784436409532  1  1  1
0.585481869049  0.016144233111  0.117758289685  1  1  1
0.585477886967  0.016116671449  0.451085875931  1  1  1
0.585471206226  0.016145097208  0.784436856964  1  1  1
0.918796793341  0.016195953693  0.117774506951  1  1  1
0.918805016355  0.016152003889  0.451077481500  1  1  1
0.918802121008  0.016166968406  0.784441062679  1  1  1
0.043114767570  0.064171898401  0.055232530032  1  1  1
0.043089535623  0.064179055606  0.388536075463  1  1  1
0.043116734645  0.064159878755  0.721884005530  1  1  1
0.376462077086  0.064163454344  0.055217299572  1  1  1
0.376455182671  0.064157017905  0.388540977880  1  1  1
0.376463904745  0.064160365238  0.721890627220  1  1  1
0.709802784496  0.064172973026  0.055224760623  1  1  1
0.709797251724  0.064173230270  0.388539129991  1  1  1
0.709794435362  0.064169900617  0.721877493299  1  1  1
0.041340472488  0.064480432063  0.277694847969  1  1  1
0.041358165626  0.064479078169  0.611032550433  1  1  1
0.041351220975  0.064480279932  0.944382085557  1  1  1
0.374710586265  0.064467476339  0.277696916186  1  1  1
0.374711910331  0.064476998133  0.611047257890  1  1  1
0.374713985237  0.064473185678  0.944374115659  1  1  1
0.708057087206  0.064480289292  0.277688069006  1  1  1
0.708037991231  0.064485121578  0.611035548185  1  1  1
0.708035680200  0.064475929059  0.944380270805  1  1  1
0.041302429225  0.064689675411  0.165597401210  1  1  1
0.041323399131  0.064669456703  0.498904313782  1  1  1
0.041313213109  0.064681968384  0.832255537339  1  1  1
0.374670624209  0.064672703507  0.165579749910  1  1  1
0.374677595461  0.064661630701  0.498918876158  1  1  1
0.374673788337  0.064671686799  0.832256840944  1  1  1
0.708015196213  0.064685630615  0.165587740014  1  1  1
0.708013939370  0.064676999677  0.498911259762  1  1  1
0.707999698514  0.064680469580  0.832252101039  1  1  1
0.205971855562  0.064282056151  0.055331928366  1  1  1
0.205964923689  0.064273509404  0.388660890197  1  1  1
0.205973952376  0.064269159426  0.722000442003  1  1  1
0.539347873837  0.064277880441  0.055327296855  1  1  1
0.539337250422  0.064274371949  0.388665649834  1  1  1
0.539335810004  0.064285136636  0.721996655220  1  1  1
0.872656656317  0.064286163444  0.055344070587  1  1  1
0.872657209791  0.064292263512  0.388654314718  1  1  1
0.872651254659  0.064276628243  0.721994926491  1  1  1
0.207915771624  0.064435812977  0.277778054279  1  1  1
0.207915876279  0.064439519083  0.611130934926  1  1  1
0.207921169552  0.064438433769  0.944462257638  1  1  1
0.541275034573  0.064437290784  0.277776624624  1  1  1
0.541266286493  0.064447906313  0.611127197084  1  1  1
0.541269240109  0.064436943396  0.944451162738  1  1  1
0.874600580004  0.064447685440  0.277773095018  1  1  1
0.874592202640  0.064444898189  0.611113375965  1  1  1
0.874594903237  0.064446479390  0.944461526604  1  1  1
0.208217276500  0.066238596119  0.165699695968  1  1  1
0.208212631098  0.066202745729  0.499043362272  1  1  1
0.208217222680  0.066244731603  0.832372246820  1  1  1
0.541604486820  0.066262871939  0.165701642885  1  1  1
0.541587943911  0.066220158721  0.499036406572  1  1  1
0.541594720587  0.066298961398  0.832371405184  1  1  1
0.874894957835  0.066272254168  0.165721336598  1  1  1
0.874902089587  0.066267919013  0.499027968318  1  1  1
0.874893693791  0.066283612191  0.832372774585  1  1  1
0.000000000000  0.130439996734  0.000000000000  0  0  0
0.000000000000  0.130439996734  0.333333333334  0  0  0
0.000000000000  0.130439996734  0.666666666666  0  0  0
0.333333333334  0.130439996734  0.000000000000  0  0  0
0.333333333334  0.130439996734  0.333333333334  0  0  0
0.333333333334  0.130439996734  0.666666666666  0  0  0
0.666666666666  0.130439996734  0.000000000000  0  0  0
0.666666666666  0.130439996734  0.333333333334  0  0  0
0.666666666666  0.130439996734  0.666666666666  0  0  0
0.000000000000  0.130439996734  0.222223341380  0  0  0
0.000000000000  0.130439996734  0.555556674713  0  0  0
0.000000000000  0.130439996734  0.888890008047  0  0  0
0.333333333334  0.130439996734  0.222223341380  0  0  0
0.333333333334  0.130439996734  0.555556674713  0  0  0
0.333333333334  0.130439996734  0.888890008047  0  0  0
0.666666666666  0.130439996734  0.222223341380  0  0  0
0.666666666666  0.130439996734  0.555556674713  0  0  0
0.666666666666  0.130439996734  0.888890008047  0  0  0
0.000000000000  0.130439996734  0.111110001801  0  0  0
0.000000000000  0.130439996734  0.444443335133  0  0  0
0.000000000000  0.130439996734  0.777776668467  0  0  0
0.333333333334  0.130439996734  0.111110001801  0  0  0
0.333333333334  0.130439996734  0.444443335133  0  0  0
0.333333333334  0.130439996734  0.777776668467  0  0  0
0.666666666666  0.130439996734  0.111110001801  0  0  0
0.666666666666  0.130439996734  0.444443335133  0  0  0
0.666666666666  0.130439996734  0.777776668467  0  0  0
0.166666666675  0.130439996734  0.000000000000  0  0  0
0.166666666675  0.130439996734  0.333333333334  0  0  0
0.166666666675  0.130439996734  0.666666666666  0  0  0
0.500000000009  0.130439996734  0.000000000000  0  0  0
0.500000000009  0.130439996734  0.333333333334  0  0  0
0.500000000009  0.130439996734  0.666666666666  0  0  0
0.833333333341  0.130439996734  0.000000000000  0  0  0
0.833333333341  0.130439996734  0.333333333334  0  0  0
0.833333333341  0.130439996734  0.666666666666  0  0  0
0.166666666675  0.130439996734  0.222223341380  0  0  0
0.166666666675  0.130439996734  0.555556674713  0  0  0
0.166666666675  0.130439996734  0.888890008047  0  0  0
0.500000000009  0.130439996734  0.222223341380  0  0  0
0.500000000009  0.130439996734  0.555556674713  0  0  0
0.500000000009  0.130439996734  0.888890008047  0  0  0
0.833333333341  0.130439996734  0.222223341380  0  0  0
0.833333333341  0.130439996734  0.555556674713  0  0  0
0.833333333341  0.130439996734  0.888890008047  0  0  0
0.166666666675  0.130439996734  0.111110001801  0  0  0
0.166666666675  0.130439996734  0.444443335133  0  0  0
0.166666666675  0.130439996734  0.777776668467  0  0  0
0.500000000009  0.130439996734  0.111110001801  0  0  0
0.500000000009  0.130439996734  0.444443335133  0  0  0
0.500000000009  0.130439996734  0.777776668467  0  0  0
0.833333333341  0.130439996734  0.111110001801  0  0  0
0.833333333341  0.130439996734  0.444443335133  0  0  0
0.833333333341  0.130439996734  0.777776668467  0  0  0
0.083333333327  0.130439996734  0.000000000000  0  0  0
0.083333333327  0.130439996734  0.333333333334  0  0  0
0.083333333327  0.130439996734  0.666666666666  0  0  0
0.416666666661  0.130439996734  0.000000000000  0  0  0
0.416666666661  0.130439996734  0.333333333334  0  0  0
0.416666666661  0.130439996734  0.666666666666  0  0  0
0.749999999993  0.130439996734  0.000000000000  0  0  0
0.749999999993  0.130439996734  0.333333333334  0  0  0
0.749999999993  0.130439996734  0.666666666666  0  0  0
0.083333333327  0.130439996734  0.222223341380  0  0  0
0.083333333327  0.130439996734  0.555556674713  0  0  0
0.083333333327  0.130439996734  0.888890008047  0  0  0
0.416666666661  0.130439996734  0.222223341380  0  0  0
0.416666666661  0.130439996734  0.555556674713  0  0  0
0.416666666661  0.130439996734  0.888890008047  0  0  0
0.749999999993  0.130439996734  0.222223341380  0  0  0
0.749999999993  0.130439996734  0.555556674713  0  0  0
0.749999999993  0.130439996734  0.888890008047  0  0  0
0.083333333327  0.130439996734  0.111110001801  0  0  0
0.083333333327  0.130439996734  0.444443335133  0  0  0
0.083333333327  0.130439996734  0.777776668467  0  0  0
0.416666666661  0.130439996734  0.111110001801  0  0  0
0.416666666661  0.130439996734  0.444443335133  0  0  0
0.416666666661  0.130439996734  0.777776668467  0  0  0
0.749999999993  0.130439996734  0.111110001801  0  0  0
0.749999999993  0.130439996734  0.444443335133  0  0  0
0.749999999993  0.130439996734  0.777776668467  0  0  0
0.250000000089  0.130439996734  0.000000000000  0  0  0
0.250000000089  0.130439996734  0.333333333334  0  0  0
0.250000000089  0.130439996734  0.666666666666  0  0  0
0.583333333421  0.130439996734  0.000000000000  0  0  0
0.583333333421  0.130439996734  0.333333333334  0  0  0
0.583333333421  0.130439996734  0.666666666666  0  0  0
0.916666666755  0.130439996734  0.000000000000  0  0  0
0.916666666755  0.130439996734  0.333333333334  0  0  0
0.916666666755  0.130439996734  0.666666666666  0  0  0
0.250000000089  0.130439996734  0.222223341380  0  0  0
0.250000000089  0.130439996734  0.555556674713  0  0  0
0.250000000089  0.130439996734  0.888890008047  0  0  0
0.583333333421  0.130439996734  0.222223341380  0  0  0
0.583333333421  0.130439996734  0.555556674713  0  0  0
0.583333333421  0.130439996734  0.888890008047  0  0  0
0.916666666755  0.130439996734  0.222223341380  0  0  0
0.916666666755  0.130439996734  0.555556674713  0  0  0
0.916666666755  0.130439996734  0.888890008047  0  0  0
0.250000000089  0.130439996734  0.111110001801  0  0  0
0.250000000089  0.130439996734  0.444443335133  0  0  0
0.250000000089  0.130439996734  0.777776668467  0  0  0
0.583333333421  0.130439996734  0.111110001801  0  0  0
0.583333333421  0.130439996734  0.444443335133  0  0  0
0.583333333421  0.130439996734  0.777776668467  0  0  0
0.916666666755  0.130439996734  0.111110001801  0  0  0
0.916666666755  0.130439996734  0.444443335133  0  0  0
0.916666666755  0.130439996734  0.777776668467  0  0  0
0.043146053872  0.196508235270  0.055267320159  1  1  1
0.043132112265  0.196512660466  0.388580983951  1  1  1
0.043148248896  0.196522620715  0.721916713252  1  1  1
0.376500807206  0.196519493587  0.055256654721  1  1  1
0.376499228337  0.196537831566  0.388586280634  1  1  1
0.376498811345  0.196529550534  0.721923718521  1  1  1
0.709834733970  0.196506077492  0.055265055109  1  1  1
0.709837610780  0.196519363664  0.388585556893  1  1  1
0.709825720855  0.196513136210  0.721914810437  1  1  1
0.041330047284  0.196283479335  0.277653369051  1  1  1
0.041348551686  0.196289046356  0.610992985728  1  1  1
0.041341304740  0.196287158411  0.944343145551  1  1  1
0.374696163572  0.196305746132  0.277655065845  1  1  1
0.374698323167  0.196307391475  0.610999845949  1  1  1
0.374699424711  0.196289494099  0.944332076016  1  1  1
0.708042570723  0.196294405727  0.277642924501  1  1  1
0.708023021421  0.196287948331  0.610997037644  1  1  1
0.708024350028  0.196287284041  0.944341152758  1  1  1
0.041331237354  0.196065958712  0.165637472310  1  1  1
0.041341597390  0.196083451749  0.498949593621  1  1  1
0.041339224815  0.196074465886  0.832294781060  1  1  1
0.374692289369  0.196079077843  0.165625522856  1  1  1
0.374695804398  0.196097667668  0.498967599487  1  1  1
0.374696083436  0.196079059849  0.832298737870  1  1  1
0.708036550274  0.196069821049  0.165633595082  1  1  1
0.708029782071  0.196076893440  0.498959971897  1  1  1
0.708020787810  0.196072703643  0.832295346117  1  1  1
0.205910592201  0.196389706721  0.055406352700  1  1  1
0.205899790590  0.196408514848  0.388734828575  1  1  1
0.205914337162  0.196410238579  0.722074219470  1  1  1
0.539280649158  0.196393122246  0.055402147259  1  1  1
0.539269419798  0.196409963662  0.388740268208  1  1  1
0.539268026344  0.196393627386  0.722071277400  1  1  1
0.872586158007  0.196380415220  0.055418910662  1  1  1
0.872588878056  0.196383363266  0.388731061536  1  1  1
0.872581713746  0.196397079793  0.722072518184  1  1  1
0.207935100071  0.196465908801  0.277510978008  1  1  1
0.207941387073  0.196474492824  0.610847984565  1  1  1
0.207941551589  0.196451214286  0.944189468073  1  1  1
0.541295399686  0.196476378878  0.277502752787  1  1  1
0.541286394241  0.196468048137  0.610850234018  1  1  1
0.541286907514  0.196450823420  0.944180996726  1  1  1
0.874618942768  0.196438900111  0.277505376457  1  1  1
0.874611871301  0.196454812379  0.610843619639  1  1  1
0.874614958482  0.196446373704  0.944197283382  1  1  1
0.208036805772  0.195728097131  0.165565797800  1  1  1
0.208037278186  0.195743104729  0.498908225625  1  1  1
0.208048595077  0.195730198716  0.832237144951  1  1  1
0.541403424093  0.195738596468  0.165566256393  1  1  1
0.541395806473  0.195737529243  0.498911193349  1  1  1
0.541394988922  0.195720564642  0.832236313381  1  1  1
0.874719314318  0.195711992017  0.165580695301  1  1  1
0.874721655957  0.195731273980  0.498891213747  1  1  1
0.874718104464  0.195721620155  0.832236081782  1  1  1
0.000418600200  0.244567674020  0.009083509014  1  1  1
0.000407890518  0.244567506072  0.342405372455  1  1  1
0.000419476743  0.244590315509  0.675742089991  1  1  1
0.333767404480  0.244595868264  0.009069485644  1  1  1
0.333767050304  0.244617862407  0.342407055029  1  1  1
0.333772646084  0.244597955800  0.675736096446  1  1  1
0.667106051106  0.244589835841  0.009074095932  1  1  1
0.667111414952  0.244605364856  0.342390448040  1  1  1
0.667102471070  0.244602929182  0.675734783695  1  1  1
0.332685724936  0.247958752950  0.225901055375  1  1  1
0.332685021286  0.247963913679  0.559244295352  1  1  1
0.332689105423  0.247941713779  0.892580712060  1  1  1
0.666021452373  0.247940850720  0.225899695447  1  1  1
0.666019898390  0.247963460588  0.559240247275  1  1  1
0.666006331834  0.247951586427  0.892582078672  1  1  1
0.999312313829  0.247907915808  0.225910328557  1  1  1
0.999324905129  0.247947845890  0.559241289920  1  1  1
0.999320484754  0.247936340712  0.892584264718  1  1  1
0.000674823941  0.244548290193  0.117770128821  1  1  1
0.000674587606  0.244584501920  0.451093088313  1  1  1
0.000685831164  0.244581947055  0.784439049538  1  1  1
0.334033395050  0.244592756883  0.117762846824  1  1  1
0.334030752634  0.244617363526  0.451101447223  1  1  1
0.334036007360  0.244589961216  0.784439715485  1  1  1
0.667370829334  0.244573690911  0.117762316779  1  1  1
0.667369165471  0.244608340941  0.451094709693  1  1  1
0.667358137479  0.244594519396  0.784436646645  1  1  1
0.166091377577  0.244876307164  0.009146579552  1  1  1
0.166085549344  0.244901827856  0.342474034430  1  1  1
0.166097497152  0.244895970897  0.675806511120  1  1  1
0.499465451192  0.244887374669  0.009135046383  1  1  1
0.499465023110  0.244914577326  0.342470266420  1  1  1
0.499457927636  0.244891286949  0.675808466789  1  1  1
0.832769190902  0.244864050593  0.009153031343  1  1  1
0.832775633014  0.244871073646  0.342467400898  1  1  1
0.832770443927  0.244889765736  0.675808730561  1  1  1
0.165537990572  0.247726424388  0.225772236005  1  1  1
0.165546178391  0.247744959050  0.559107043005  1  1  1
0.165548476196  0.247720938314  0.892450530653  1  1  1
0.498905496769  0.247739203852  0.225763557270  1  1  1
0.498901111052  0.247737745758  0.559107706497  1  1  1
0.498901449738  0.247711200243  0.892441191048  1  1  1
0.832223966864  0.247689346380  0.225774086143  1  1  1
0.832221749869  0.247726706514  0.559105377491  1  1  1
0.832223444981  0.247706718433  0.892453417966  1  1  1
0.163118639088  0.282703487607  0.102826412064  1  1  1
0.163118657105  0.282728672643  0.436151406757  1  1  1
0.163131770976  0.282725887732  0.769502697356  1  1  1
0.496486790120  0.282733492907  0.102821731450  1  1  1
0.496485153876  0.282742308830  0.436162197064  1  1  1
0.496484071216  0.282720158733  0.769502064290  1  1  1
0.829812818549  0.282693374846  0.102838191893  1  1  1
0.829816977693  0.282710562083  0.436154409378  1  1  1
0.829814467669  0.282719093494  0.769503566907  1  1  1
0.083564207279  0.244603726677  0.009043380581  1  1  1
0.083554013033  0.244620596937  0.342378310557  1  1  1
0.083570307515  0.244621116650  0.675699666133  1  1  1
0.416921763980  0.244618495187  0.009026732992  1  1  1
0.416923318444  0.244642649574  0.342373744009  1  1  1
0.416919139847  0.244618429204  0.675699085554  1  1  1
0.750244674214  0.244605737780  0.009040991060  1  1  1
0.750251795828  0.244620375652  0.342361293649  1  1  1
0.750239178781  0.244625191698  0.675696931882  1  1  1
0.083012929409  0.242162647001  0.228232702004  1  1  1
0.083023580203  0.242193661446  0.561560533129  1  1  1
0.083024501620  0.242156221593  0.894908772514  1  1  1
0.416392112175  0.242210353737  0.228227299430  1  1  1
0.416386622583  0.242205631729  0.561568831250  1  1  1
0.416392930221  0.242177501534  0.894904784806  1  1  1
0.749715495412  0.242132580258  0.228229140288  1  1  1
0.749710786905  0.242169490686  0.561566950933  1  1  1
0.749706817056  0.242145237368  0.894911658347  1  1  1
0.083778239233  0.248026704899  0.121248454595  1  1  1
0.083781729473  0.248044474291  0.454506514397  1  1  1
0.083794877683  0.248043132672  0.787918549962  1  1  1
0.417160679224  0.248055002874  0.121228295178  1  1  1
0.417158394988  0.248053352988  0.454540797031  1  1  1
0.417160800490  0.248037282971  0.787907183146  1  1  1
0.750471737289  0.248027085110  0.121251203462  1  1  1
0.750481056714  0.248048586382  0.454538576346  1  1  1
0.750469463237  0.248052824922  0.787916576502  1  1  1
0.249853789475  0.244631410077  0.007669877857  1  1  1
0.249852314996  0.244665108630  0.341012424959  1  1  1
0.249858448171  0.244639067246  0.674329356785  1  1  1
0.583205427941  0.244633359927  0.007661460705  1  1  1
0.583207906969  0.244660294283  0.340994358297  1  1  1
0.583198451716  0.244638342959  0.674331192399  1  1  1
0.916525068208  0.244607734222  0.007681337454  1  1  1
0.916524575724  0.244614381182  0.341005304423  1  1  1
0.916526613308  0.244633138657  0.674334167007  1  1  1
0.249755822502  0.244605807487  0.228403885877  1  1  1
0.249758893288  0.244613057059  0.561747551985  1  1  1
0.249761645634  0.244586341581  0.895082860684  1  1  1
0.583112449914  0.244602847428  0.228403462404  1  1  1
0.583105640641  0.244618233471  0.561747601928  1  1  1
0.583101595704  0.244602827943  0.895085344711  1  1  1