ATOMIC_SPECIES
Al 26.981 al.gga.psp blps

LATTICE_CONSTANT
1.8897259885789233  // add lattice constant

LATTICE_VECTORS
0.000000000000    2.024462558660    2.024462558660    
2.024462558660    0.000000000000    2.024462558660    
2.024462558660    2.024462558660    0.000000000000    

ATOMIC_POSITIONS
Direct

Al
0.0
1
    0.000000000000    0.000000000000    0.000000000000 1 1 1
