%BLOCK LATTICE_CART
   2.805799707700000   0.000000000000000   0.000000000000000
   1.402899853850000   2.429893824799152   0.000000000000000
   0.000000000000003   0.000000000000002  50.588213870303285
%END BLOCK LATTICE_CART
%BLOCK POSITIONS_FRAC
    Al   0.000000000000000   0.000000000000000   0.000020000899179
    Al   0.333333333300000   0.333333333300000   0.045254466563384
    Al   0.666666666700000   0.666666666700000   0.090433993958294
    Al   0.000000000000000   0.000000000000000   0.135665786789373
    Al   0.333333333300000   0.333333333300000   0.181174714583719
    Al   0.000000000000000   0.000000000000000   0.226811728277860
    Al   0.433333333300000   0.433333333300000   0.273357486709840
    Al   0.766666666700000   0.766666666700000   0.318662612622427
    Al   0.100000000000000   0.100000000000000   0.363851701857476
    Al   0.433333333300000   0.433333333300000   0.409073979367370
    Al   0.766666666700000   0.766666666700000   0.454542173650145
    Al   0.433333333300000   0.433333333300000   0.500010650664453
    Al   0.100000000000000   0.100000000000000   0.545233710334624
    Al   0.766666666700000   0.766666666700000   0.590424056313627
    Al   0.433333333300000   0.433333333300000   0.635730801731810
    Al   1.000000000000000   1.000000000000000   0.682278335937538
    Al   0.333333333300000   0.333333333300000   0.727917218568685
    Al   1.000000000000000   1.000000000000000   0.773427892461962
    Al   0.666666666700000   0.666666666700000   0.818661213194761
    Al   0.333333333300000   0.333333333300000   0.863841917284495
    Al   0.000000000000000   0.000000000000000   0.909077104273604
    Al   0.666666666700000   0.666666666700000   0.954548675076020
%END BLOCK POSITIONS_FRAC
%BLOCK SPECIES_POT
    Al al_HC.lda.recpot                                                                       
%END BLOCK SPECIES_POT
%BLOCK ION_OPTIMIZATION
           0           0           1
           0           0           1
           0           0           1
           0           0           1
           0           0           1
           0           0           1
           0           0           1
           0           0           1
           0           0           1
           0           0           1
           0           0           1
           0           0           1
           0           0           1
           0           0           1
           0           0           1
           0           0           1
           0           0           1
           0           0           1
           0           0           1
           0           0           1
           0           0           1
           0           0           1
%END BLOCK ION_OPTIMIZATION
