ATOMIC_SPECIES
H 1.00 /home/qiou/water_cluster/H_ONCV_PBE-1.0.upf
O 1.00 /home/qiou/water_cluster/O_ONCV_PBE-1.0.upf

LATTICE_CONSTANT
1.8897259886

LATTICE_VECTORS
21.16708996 0.0 0.0 
0.0 21.16708996 0.0 
0.0 0.0 21.16708996 

NUMERICAL_ORBITAL
/home/qiou/water_cluster/H_gga_10au_100Ry_3s2p.orb
/home/qiou/water_cluster/O_gga_10au_100Ry_3s3p2d.orb

ATOMIC_POSITIONS
Cartesian    # Cartesian(Unit is LATTICE_CONSTANT)

H
0.0
12
3.598667 5.431455 4.292665 
4.102539 5.249263 5.753222 
6.179056 5.094748 4.732142 
7.549984 5.724283 4.992154 
7.140990 7.896945 4.978048 
8.510682 7.859666 4.275061 
4.961644 8.819977 5.565552 
4.889641 7.416305 4.931906 
3.795243 4.775253 8.028687 
4.936378 3.997578 7.326148 
6.905593 4.037489 6.469770 
6.898937 2.682856 7.225999 

O
0.0
6
4.290374 5.710696 4.899163 
7.096550 4.864191 4.983082 
8.030289 7.492524 5.021932 
5.375238 8.263526 4.900409 
6.598471 3.592587 7.296936 
4.026124 4.356559 7.195224
