ATOMIC_SPECIES
Mg 12 mg.gga.psp blps

LATTICE_CONSTANT
6.967764073698153  // add lattice constant

LATTICE_VECTORS
-0.500000000000    0.500000000000    0.500000000000    
0.500000000000    -0.500000000000    0.500000000000    
0.500000000000    0.500000000000    -0.500000000000    

ATOMIC_POSITIONS
Direct

Mg
0.0
1
    0.000000000000    0.000000000000    0.000000000000 1 1 1
