ATOMIC_SPECIES
Al 27 al.lda.lps

LATTICE_CONSTANT
7.50241114482

LATTICE_VECTORS
0.707106781187 0 0 #latvec1
0.353553390593 0.612372435696 0 #latvec2
0 0 12.7017059222 #latvec3

ATOMIC_POSITIONS
Direct

Al #label
0 #magnetism
22 #number of atoms
0 0 0.000154039821808 0 0 1 0 0 0
0.333333333332 0.333333333332 0.0453279634018 0 0 1 0 0 0
0.666666666668 0.666666666668 0.091051390875 0 0 1 0 0 0
0 0 0.136239416799 0 0 1 0 0 0
0.333333333332 0.333333333332 0.18187459031 0 0 1 0 0 0
0 0 0.227280125126 0 0 1 0 0 0
0.666666666668 0.666666666668 0.272639826769 0 0 1 0 0 0
0 0 0.318299464929 0 0 1 0 0 0
0.333333333332 0.333333333332 0.363591386474 0 0 1 0 0 0
0.666666666668 0.666666666668 0.40900378609 0 0 1 0 0 0
0 0 0.454528717263 0 0 1 0 0 0
0.666666666668 0.666666666668 0.500054290235 0 0 1 0 0 0
0.333333333332 0.333333333332 0.54546927282 0 0 1 0 0 0
0 0 0.590766353547 0 0 1 0 0 0
0.666666666668 0.666666666668 0.636432460603 0 0 1 0 0 0
0 0 0.681802560429 0 0 1 0 0 0
0.333333333332 0.333333333332 0.727218482737 0 0 1 0 0 0
0 0 0.772865843118 0 0 1 0 0 0
0.666666666668 0.666666666668 0.818064081068 0 0 1 0 0 0
0.333333333332 0.333333333332 0.863795392994 0 0 1 0 0 0
0 0 0.908975277056 0 0 1 0 0 0
0.666666666668 0.666666666668 0.954565277536 0 0 1 0 0 0
