%BLOCK LATTICE_CART
3.100199499428    0.000000000000    0.000000000000    
-1.550099749714    2.684851523305    0.000000000000    
0.000000000000    0.000000000000    5.070133082765    
%END BLOCK LATTICE_CART
%BLOCK POSITIONS_FRAC
Mg    0.000000000000    0.000000000000    0.000000000000
Mg    0.666666666667    0.333333333333    0.500000000000
%END BLOCK POSITIONS_FRAC
%BLOCK SPECIES_POT
Mg mg.lda.recpot
%END BLOCK SPECIES_POT
