ATOMIC_SPECIES
Al 13 al.lda.lps

LATTICE_CONSTANT
7.50241114482

LATTICE_VECTORS
0.707106781187 0 0 #latvec1
0.353553390593 0.612372435696 0 #latvec2
0 0 12.124355653 #latvec3

ATOMIC_POSITIONS
Direct

Al #label
0 #magnetism
21 #number of atoms
0  0  0  m  0  0  1
0.333333333332  0.333333333332  0.0466483780056  m  0  0  1
0.666666666668  0.666666666668  0.0938966311234  m  0  0  1
0  0  0.141005011649  m  0  0  1
0.333333333332  0.333333333332  0.188795183125  m  0  0  1
0.666666666668  0.666666666668  0.236626726842  m  0  0  1
0  0  0.284289076589  m  0  0  1
0.333333333332  0.333333333332  0.332551063864  m  0  0  1
0.666666666668  0.666666666668  0.38023392619  m  0  0  1
0  0  0.427856637857  m  0  0  1
0.333333333332  0.333333333332  0.475991043416  m  0  0  1
0.666666666668  0.666666666668  0.524008956584  m  0  0  1
0  0  0.572143362143  m  0  0  1
0.333333333332  0.333333333332  0.61976607381  m  0  0  1
0.666666666668  0.666666666668  0.667448936136  m  0  0  1
0  0  0.715710923411  m  0  0  1
0.333333333332  0.333333333332  0.763373273158  m  0  0  1
0.666666666668  0.666666666668  0.811204816875  m  0  0  1
0  0  0.858994988351  m  0  0  1
0.333333333332  0.333333333332  0.906103368877  m  0  0  1
0.666666666668  0.666666666668  0.953351621994  m  0  0  1
