ATOMIC_SPECIES
Al 13 al.lda.lps

LATTICE_CONSTANT
7.50241114482

LATTICE_VECTORS
0.707106781187 0 0 #latvec1
0.353553390593 0.612372435696 0 #latvec2
0 0 12.124355653 #latvec3

ATOMIC_POSITIONS
Direct

Al #label
0 #magnetism
21 #number of atoms
0  0  0  m  0  0  1
0.333333333332  0.333333333332  0.0466404769245  m  0  0  1
0.666666666668  0.666666666668  0.0938857118398  m  0  0  1
0  0  0.140989935624  m  0  0  1
0.333333333332  0.333333333332  0.188781500019  m  0  0  1
0.666666666668  0.666666666668  0.236614773417  m  0  0  1
0  0  0.284277475635  m  0  0  1
0.333333333332  0.333333333332  0.332544696327  m  0  0  1
0.666666666668  0.666666666668  0.380228078094  m  0  0  1
0  0  0.427850819585  m  0  0  1
0.333333333332  0.333333333332  0.475989420068  m  0  0  1
0.666666666668  0.666666666668  0.524010579932  m  0  0  1
0  0  0.572149180415  m  0  0  1
0.333333333332  0.333333333332  0.619771921906  m  0  0  1
0.666666666668  0.666666666668  0.667455303673  m  0  0  1
0  0  0.715722524365  m  0  0  1
0.333333333332  0.333333333332  0.763385226583  m  0  0  1
0.666666666668  0.666666666668  0.811218499981  m  0  0  1
0  0  0.859010064376  m  0  0  1
0.333333333332  0.333333333332  0.90611428816  m  0  0  1
0.666666666668  0.666666666668  0.953359523075  m  0  0  1
