ATOMIC_SPECIES
Al 13 al.lda.lps

LATTICE_CONSTANT
7.50241114482

LATTICE_VECTORS
0.707106781187 0 0 #latvec1
0.353553390593 0.612372435696 0 #latvec2
0 0 12.124355653 #latvec3

ATOMIC_POSITIONS
Direct

Al #label
0 #magnetism
21 #number of atoms
0  0  0  m  0  0  1
0.333333333332  0.333333333332  0.0468167484695  m  0  0  1
0.666666666668  0.666666666668  0.093737175149  m  0  0  1
0  0  0.140982480248  m  0  0  1
0.333333333332  0.333333333332  0.188348148545  m  0  0  1
0.666666666668  0.666666666668  0.235919722469  m  0  0  1
0  0  0.283636407006  m  0  0  1
0.333333333332  0.333333333332  0.331761855774  m  0  0  1
0.666666666668  0.666666666668  0.379869195944  m  0  0  1
0  0  0.427990665912  m  0  0  1
0.333333333332  0.333333333332  0.476032669209  m  0  0  1
0.666666666668  0.666666666668  0.523967330791  m  0  0  1
0  0  0.572009334088  m  0  0  1
0.333333333332  0.333333333332  0.620130804056  m  0  0  1
0.666666666668  0.666666666668  0.668238144226  m  0  0  1
0  0  0.716363592994  m  0  0  1
0.333333333332  0.333333333332  0.764080277531  m  0  0  1
0.666666666668  0.666666666668  0.811651851455  m  0  0  1
0  0  0.859017519752  m  0  0  1
0.333333333332  0.333333333332  0.906262824851  m  0  0  1
0.666666666668  0.666666666668  0.95318325153  m  0  0  1
