ATOMIC_SPECIES
Al 13 al.lda.lps

LATTICE_CONSTANT
7.50241114482

LATTICE_VECTORS
0.707106781187 0 0 #latvec1
0.353553390593 0.612372435696 0 #latvec2
0 0 12.124355653 #latvec3

ATOMIC_POSITIONS
Direct

Al #label
0 #magnetism
21 #number of atoms
0  0  0  m  0  0  1
0.333333333332  0.333333333332  0.0471739904145  m  0  0  1
0.666666666668  0.666666666668  0.0938552137134  m  0  0  1
0  0  0.140694335421  m  0  0  1
0.333333333332  0.333333333332  0.187447503591  m  0  0  1
0.666666666668  0.666666666668  0.235423445594  m  0  0  1
0  0  0.283841870799  m  0  0  1
0.333333333332  0.333333333332  0.331932649615  m  0  0  1
0.666666666668  0.666666666668  0.379961085033  m  0  0  1
0  0  0.427943328725  m  0  0  1
0.333333333332  0.333333333332  0.475821224073  m  0  0  1
0.666666666668  0.666666666668  0.524178775927  m  0  0  1
0  0  0.572056671275  m  0  0  1
0.333333333332  0.333333333332  0.620038914967  m  0  0  1
0.666666666668  0.666666666668  0.668067350385  m  0  0  1
0  0  0.716158129201  m  0  0  1
0.333333333332  0.333333333332  0.764576554406  m  0  0  1
0.666666666668  0.666666666668  0.812552496409  m  0  0  1
0  0  0.859305664579  m  0  0  1
0.333333333332  0.333333333332  0.906144786287  m  0  0  1
0.666666666668  0.666666666668  0.952826009586  m  0  0  1
