ATOMIC_SPECIES
Al 13 al.lda.lps

LATTICE_CONSTANT
7.50241114482

LATTICE_VECTORS
0.707106781187 0 0 #latvec1
0.353553390593 0.612372435696 0 #latvec2
0 0 12.124355653 #latvec3

ATOMIC_POSITIONS
Direct

Al #label
0 #magnetism
21 #number of atoms
0  0  0  m  0  0  1
0.333333333332  0.333333333332  0.0467333263374  m  0  0  1
0.666666666668  0.666666666668  0.0938819197619  m  0  0  1
0  0  0.140842689432  m  0  0  1
0.333333333332  0.333333333332  0.188192882433  m  0  0  1
0.666666666668  0.666666666668  0.235638441077  m  0  0  1
0  0  0.283727475974  m  0  0  1
0.333333333332  0.333333333332  0.331752599286  m  0  0  1
0.666666666668  0.666666666668  0.379932409973  m  0  0  1
0  0  0.428001215868  m  0  0  1
0.333333333332  0.333333333332  0.476019457154  m  0  0  1
0.666666666668  0.666666666668  0.523980542846  m  0  0  1
0  0  0.571998784132  m  0  0  1
0.333333333332  0.333333333332  0.620067590027  m  0  0  1
0.666666666668  0.666666666668  0.668247400714  m  0  0  1
0  0  0.716272524026  m  0  0  1
0.333333333332  0.333333333332  0.764361558923  m  0  0  1
0.666666666668  0.666666666668  0.811807117567  m  0  0  1
0  0  0.859157310568  m  0  0  1
0.333333333332  0.333333333332  0.906118080238  m  0  0  1
0.666666666668  0.666666666668  0.953266673663  m  0  0  1
