ATOMIC_SPECIES
Al 13 al.lda.lps

LATTICE_CONSTANT
7.50241114482

LATTICE_VECTORS
0.707106781187 0 0 #latvec1
0.353553390593 0.612372435696 0 #latvec2
0 0 12.124355653 #latvec3

ATOMIC_POSITIONS
Direct

Al #label
0 #magnetism
21 #number of atoms
0  0  0  m  0  0  1
0.333333333332  0.333333333332  0.0474074196666  m  0  0  1
0.666666666668  0.666666666668  0.0945022674891  m  0  0  1
0  0  0.141712520747  m  0  0  1
0.333333333332  0.333333333332  0.189530062742  m  0  0  1
0.666666666668  0.666666666668  0.237490250223  m  0  0  1
0  0  0.285011222479  m  0  0  1
0.333333333332  0.333333333332  0.331484375541  m  0  0  1
0.666666666668  0.666666666668  0.379515311416  m  0  0  1
0  0  0.427419304782  m  0  0  1
0.333333333332  0.333333333332  0.475528541636  m  0  0  1
0.666666666668  0.666666666668  0.524471458364  m  0  0  1
0  0  0.572580695218  m  0  0  1
0.333333333332  0.333333333332  0.620484688584  m  0  0  1
0.666666666668  0.666666666668  0.668515624459  m  0  0  1
0  0  0.714988777521  m  0  0  1
0.333333333332  0.333333333332  0.762509749777  m  0  0  1
0.666666666668  0.666666666668  0.810469937258  m  0  0  1
0  0  0.858287479253  m  0  0  1
0.333333333332  0.333333333332  0.905497732511  m  0  0  1
0.666666666668  0.666666666668  0.952592580333  m  0  0  1
