ATOMIC_SPECIES
Al 13 al.lda.lps

LATTICE_CONSTANT
7.50241114482

LATTICE_VECTORS
0.707106781187 0 0 #latvec1
0.353553390593 0.612372435696 0 #latvec2
0 0 12.124355653 #latvec3

ATOMIC_POSITIONS
Direct

Al #label
0 #magnetism
21 #number of atoms
0  0  0  m  0  0  1
0.333333333332  0.333333333332  0.0464859017882  m  0  0  1
0.666666666668  0.666666666668  0.0938969147033  m  0  0  1
0  0  0.140925987406  m  0  0  1
0.333333333332  0.333333333332  0.188611398562  m  0  0  1
0.666666666668  0.666666666668  0.235759156976  m  0  0  1
0  0  0.283663245442  m  0  0  1
0.333333333332  0.333333333332  0.33165150443  m  0  0  1
0.666666666668  0.666666666668  0.379916309469  m  0  0  1
0  0  0.428033718405  m  0  0  1
0.333333333332  0.333333333332  0.476130761282  m  0  0  1
0.666666666668  0.666666666668  0.523869238718  m  0  0  1
0  0  0.571966281595  m  0  0  1
0.333333333332  0.333333333332  0.620083690531  m  0  0  1
0.666666666668  0.666666666668  0.66834849557  m  0  0  1
0  0  0.716336754558  m  0  0  1
0.333333333332  0.333333333332  0.764240843024  m  0  0  1
0.666666666668  0.666666666668  0.811388601438  m  0  0  1
0  0  0.859074012594  m  0  0  1
0.333333333332  0.333333333332  0.906103085297  m  0  0  1
0.666666666668  0.666666666668  0.953514098212  m  0  0  1
