ATOMIC_SPECIES
Al 13 al.lda.lps

LATTICE_CONSTANT
7.50241114482

LATTICE_VECTORS
0.707106781187 0 0 #latvec1
0.353553390593 0.612372435696 0 #latvec2
0 0 12.124355653 #latvec3

ATOMIC_POSITIONS
Direct

Al #label
0 #magnetism
21 #number of atoms
0  0  0  m  0  0  1
0.333333333332  0.333333333332  0.0457933799307  m  0  0  1
0.666666666668  0.666666666668  0.0924221254658  m  0  0  1
0  0  0.139245698454  m  0  0  1
0.333333333332  0.333333333332  0.187035263163  m  0  0  1
0.666666666668  0.666666666668  0.235039464072  m  0  0  1
0  0  0.282975666775  m  0  0  1
0.333333333332  0.333333333332  0.331583450729  m  0  0  1
0.666666666668  0.666666666668  0.379432631989  m  0  0  1
0  0  0.427241148164  m  0  0  1
0.333333333332  0.333333333332  0.475762867199  m  0  0  1
0.666666666668  0.666666666668  0.524237132801  m  0  0  1
0  0  0.572758851836  m  0  0  1
0.333333333332  0.333333333332  0.620567368011  m  0  0  1
0.666666666668  0.666666666668  0.668416549271  m  0  0  1
0  0  0.717024333225  m  0  0  1
0.333333333332  0.333333333332  0.764960535928  m  0  0  1
0.666666666668  0.666666666668  0.812964736837  m  0  0  1
0  0  0.860754301546  m  0  0  1
0.333333333332  0.333333333332  0.907577874534  m  0  0  1
0.666666666668  0.666666666668  0.954206620069  m  0  0  1
