ATOMIC_SPECIES
Al 13 al.lda.lps

LATTICE_CONSTANT
7.50241114482

LATTICE_VECTORS
0.707106781187 0 0 #latvec1
0.353553390593 0.612372435696 0 #latvec2
0 0 12.124355653 #latvec3

ATOMIC_POSITIONS
Direct

Al #label
0 #magnetism
21 #number of atoms
0  0  0  m  0  0  1
0.333333333332  0.333333333332  0.0478837818221  m  0  0  1
0.666666666668  0.666666666668  0.094165103685  m  0  0  1
0  0  0.139733395649  m  0  0  1
0.333333333332  0.333333333332  0.187349318659  m  0  0  1
0.666666666668  0.666666666668  0.235439509806  m  0  0  1
0  0  0.28351697567  m  0  0  1
0.333333333332  0.333333333332  0.332460085595  m  0  0  1
0.666666666668  0.666666666668  0.380011407151  m  0  0  1
0  0  0.427454110986  m  0  0  1
0.333333333332  0.333333333332  0.476054479686  m  0  0  1
0.666666666668  0.666666666668  0.523945520314  m  0  0  1
0  0  0.572545889014  m  0  0  1
0.333333333332  0.333333333332  0.619988592849  m  0  0  1
0.666666666668  0.666666666668  0.667539914405  m  0  0  1
0  0  0.71648302433  m  0  0  1
0.333333333332  0.333333333332  0.764560490194  m  0  0  1
0.666666666668  0.666666666668  0.812650681341  m  0  0  1
0  0  0.860266604351  m  0  0  1
0.333333333332  0.333333333332  0.905834896315  m  0  0  1
0.666666666668  0.666666666668  0.952116218178  m  0  0  1
