ATOMIC_SPECIES
Al 13 al.lda.lps

LATTICE_CONSTANT
7.50241114482

LATTICE_VECTORS
0.707106781187 0 0 #latvec1
0.353553390593 0.612372435696 0 #latvec2
0 0 12.124355653 #latvec3

ATOMIC_POSITIONS
Direct

Al #label
0 #magnetism
21 #number of atoms
0  0  0  m  0  0  1
0.333333333332  0.333333333332  0.0470278315563  m  0  0  1
0.666666666668  0.666666666668  0.0940105896199  m  0  0  1
0  0  0.141243368544  m  0  0  1
0.333333333332  0.333333333332  0.188770519059  m  0  0  1
0.666666666668  0.666666666668  0.236480968468  m  0  0  1
0  0  0.28412771299  m  0  0  1
0.333333333332  0.333333333332  0.331662695049  m  0  0  1
0.666666666668  0.666666666668  0.379742731273  m  0  0  1
0  0  0.427786483498  m  0  0  1
0.333333333332  0.333333333332  0.475852513473  m  0  0  1
0.666666666668  0.666666666668  0.524147486527  m  0  0  1
0  0  0.572213516502  m  0  0  1
0.333333333332  0.333333333332  0.620257268727  m  0  0  1
0.666666666668  0.666666666668  0.668337304951  m  0  0  1
0  0  0.71587228701  m  0  0  1
0.333333333332  0.333333333332  0.763519031532  m  0  0  1
0.666666666668  0.666666666668  0.811229480941  m  0  0  1
0  0  0.858756631456  m  0  0  1
0.333333333332  0.333333333332  0.90598941038  m  0  0  1
0.666666666668  0.666666666668  0.952972168444  m  0  0  1
