ATOMIC_SPECIES
Al 13 al.lda.lps

LATTICE_CONSTANT
7.50241114482

LATTICE_VECTORS
0.707106781187 0 0 #latvec1
0.353553390593 0.612372435696 0 #latvec2
0 0 12.124355653 #latvec3

ATOMIC_POSITIONS
Direct

Al #label
0 #magnetism
21 #number of atoms
0  0  0  m  0  0  1
0.333333333332  0.333333333332  0.0469011300691  m  0  0  1
0.666666666668  0.666666666668  0.0938464740547  m  0  0  1
0  0  0.141086771748  m  0  0  1
0.333333333332  0.333333333332  0.188516993431  m  0  0  1
0.666666666668  0.666666666668  0.236144083577  m  0  0  1
0  0  0.283832809216  m  0  0  1
0.333333333332  0.333333333332  0.33172221574  m  0  0  1
0.666666666668  0.666666666668  0.379818641011  m  0  0  1
0  0  0.427909042893  m  0  0  1
0.333333333332  0.333333333332  0.475960650984  m  0  0  1
0.666666666668  0.666666666668  0.524039349016  m  0  0  1
0  0  0.572090957107  m  0  0  1
0.333333333332  0.333333333332  0.620181358989  m  0  0  1
0.666666666668  0.666666666668  0.66827778426  m  0  0  1
0  0  0.716167190784  m  0  0  1
0.333333333332  0.333333333332  0.763855916423  m  0  0  1
0.666666666668  0.666666666668  0.811483006569  m  0  0  1
0  0  0.858913228252  m  0  0  1
0.333333333332  0.333333333332  0.906153525945  m  0  0  1
0.666666666668  0.666666666668  0.953098869931  m  0  0  1
