ATOMIC_SPECIES
Al 13 al.lda.lps

LATTICE_CONSTANT
7.50241114482

LATTICE_VECTORS
0.707106781187 0 0 #latvec1
0.353553390593 0.612372435696 0 #latvec2
0 0 12.124355653 #latvec3

ATOMIC_POSITIONS
Direct

Al #label
0 #magnetism
21 #number of atoms
0  0  0  m  0  0  1
0.333333333332  0.333333333332  0.0478889078436  m  0  0  1
0.666666666668  0.666666666668  0.0941684082787  m  0  0  1
0  0  0.139732611557  m  0  0  1
0.333333333332  0.333333333332  0.187348016125  m  0  0  1
0.666666666668  0.666666666668  0.235438681571  m  0  0  1
0  0  0.283516917265  m  0  0  1
0.333333333332  0.333333333332  0.332461459428  m  0  0  1
0.666666666668  0.666666666668  0.380012108317  m  0  0  1
0  0  0.427453963172  m  0  0  1
0.333333333332  0.333333333332  0.476055056015  m  0  0  1
0.666666666668  0.666666666668  0.523944943985  m  0  0  1
0  0  0.572546036828  m  0  0  1
0.333333333332  0.333333333332  0.619987891683  m  0  0  1
0.666666666668  0.666666666668  0.667538540572  m  0  0  1
0  0  0.716483082735  m  0  0  1
0.333333333332  0.333333333332  0.764561318429  m  0  0  1
0.666666666668  0.666666666668  0.812651983875  m  0  0  1
0  0  0.860267388443  m  0  0  1
0.333333333332  0.333333333332  0.905831591721  m  0  0  1
0.666666666668  0.666666666668  0.952111092156  m  0  0  1
