ATOMIC_SPECIES
Al 13 al.lda.lps

LATTICE_CONSTANT
7.50241114482

LATTICE_VECTORS
0.707106781187 0 0 #latvec1
0.353553390593 0.612372435696 0 #latvec2
0 0 12.124355653 #latvec3

ATOMIC_POSITIONS
Direct

Al #label
0 #magnetism
21 #number of atoms
0  0  0  m  0  0  1
0.333333333332  0.333333333332  0.0468395129849  m  0  0  1
0.666666666668  0.666666666668  0.0936976767463  m  0  0  1
0  0  0.141020626841  m  0  0  1
0.333333333332  0.333333333332  0.188390518091  m  0  0  1
0.666666666668  0.666666666668  0.235996479493  m  0  0  1
0  0  0.283611555796  m  0  0  1
0.333333333332  0.333333333332  0.331764381716  m  0  0  1
0.666666666668  0.666666666668  0.379851945884  m  0  0  1
0  0  0.427987787004  m  0  0  1
0.333333333332  0.333333333332  0.47603627456  m  0  0  1
0.666666666668  0.666666666668  0.52396372544  m  0  0  1
0  0  0.572012212996  m  0  0  1
0.333333333332  0.333333333332  0.620148054116  m  0  0  1
0.666666666668  0.666666666668  0.668235618284  m  0  0  1
0  0  0.716388444204  m  0  0  1
0.333333333332  0.333333333332  0.764003520507  m  0  0  1
0.666666666668  0.666666666668  0.811609481909  m  0  0  1
0  0  0.858979373159  m  0  0  1
0.333333333332  0.333333333332  0.906302323254  m  0  0  1
0.666666666668  0.666666666668  0.953160487015  m  0  0  1
