ATOMIC_SPECIES
Al 13 al.lda.lps

LATTICE_CONSTANT
7.50241114482

LATTICE_VECTORS
0.707106781187 0 0 #latvec1
0.353553390593 0.612372435696 0 #latvec2
0 0 12.124355653 #latvec3

ATOMIC_POSITIONS
Direct

Al #label
0 #magnetism
21 #number of atoms
0  0  0  m  0  0  1
0.333333333332  0.333333333332  0.0468315545149  m  0  0  1
0.666666666668  0.666666666668  0.0937057085911  m  0  0  1
0  0  0.1411579368  m  0  0  1
0.333333333332  0.333333333332  0.187494872501  m  0  0  1
0.666666666668  0.666666666668  0.235415695482  m  0  0  1
0  0  0.283998615097  m  0  0  1
0.333333333332  0.333333333332  0.33167819033  m  0  0  1
0.666666666668  0.666666666668  0.379936807337  m  0  0  1
0  0  0.428179349779  m  0  0  1
0.333333333332  0.333333333332  0.475708690877  m  0  0  1
0.666666666668  0.666666666668  0.524291309123  m  0  0  1
0  0  0.571820650221  m  0  0  1
0.333333333332  0.333333333332  0.620063192663  m  0  0  1
0.666666666668  0.666666666668  0.66832180967  m  0  0  1
0  0  0.716001384903  m  0  0  1
0.333333333332  0.333333333332  0.764584304518  m  0  0  1
0.666666666668  0.666666666668  0.812505127499  m  0  0  1
0  0  0.8588420632  m  0  0  1
0.333333333332  0.333333333332  0.906294291409  m  0  0  1
0.666666666668  0.666666666668  0.953168445485  m  0  0  1
