ATOMIC_SPECIES
Al 13 al.lda.lps

LATTICE_CONSTANT
7.50241114482

LATTICE_VECTORS
0.707106781187 0 0 #latvec1
0.353553390593 0.612372435696 0 #latvec2
0 0 12.124355653 #latvec3

ATOMIC_POSITIONS
Direct

Al #label
0 #magnetism
21 #number of atoms
0  0  0  m  0  0  1
0.333333333332  0.333333333332  0.0469299813899  m  0  0  1
0.666666666668  0.666666666668  0.0935407062407  m  0  0  1
0  0  0.141172225126  m  0  0  1
0.333333333332  0.333333333332  0.188558898797  m  0  0  1
0.666666666668  0.666666666668  0.236301519394  m  0  0  1
0  0  0.283512794663  m  0  0  1
0.333333333332  0.333333333332  0.331774420056  m  0  0  1
0.666666666668  0.666666666668  0.379783392466  m  0  0  1
0  0  0.427976345942  m  0  0  1
0.333333333332  0.333333333332  0.476050602574  m  0  0  1
0.666666666668  0.666666666668  0.523949397426  m  0  0  1
0  0  0.572023654058  m  0  0  1
0.333333333332  0.333333333332  0.620216607534  m  0  0  1
0.666666666668  0.666666666668  0.668225579944  m  0  0  1
0  0  0.716487205337  m  0  0  1
0.333333333332  0.333333333332  0.763698480606  m  0  0  1
0.666666666668  0.666666666668  0.811441101203  m  0  0  1
0  0  0.858827774874  m  0  0  1
0.333333333332  0.333333333332  0.906459293759  m  0  0  1
0.666666666668  0.666666666668  0.95307001861  m  0  0  1
