ATOMIC_SPECIES
Al 13 al.lda.lps

LATTICE_CONSTANT
7.50241114482

LATTICE_VECTORS
0.707106781187 0 0 #latvec1
0.353553390593 0.612372435696 0 #latvec2
0 0 12.124355653 #latvec3

ATOMIC_POSITIONS
Direct

Al #label
0 #magnetism
21 #number of atoms
0  0  0  m  0  0  1
0.333333333332  0.333333333332  0.0466409369858  m  0  0  1
0.666666666668  0.666666666668  0.0938863476439  m  0  0  1
0  0  0.140990813465  m  0  0  1
0.333333333332  0.333333333332  0.188782296754  m  0  0  1
0.666666666668  0.666666666668  0.236615469437  m  0  0  1
0  0  0.284278151131  m  0  0  1
0.333333333332  0.333333333332  0.332545067093  m  0  0  1
0.666666666668  0.666666666668  0.380228418615  m  0  0  1
0  0  0.427851158369  m  0  0  1
0.333333333332  0.333333333332  0.475989514591  m  0  0  1
0.666666666668  0.666666666668  0.524010485409  m  0  0  1
0  0  0.572148841631  m  0  0  1
0.333333333332  0.333333333332  0.619771581385  m  0  0  1
0.666666666668  0.666666666668  0.667454932907  m  0  0  1
0  0  0.715721848869  m  0  0  1
0.333333333332  0.333333333332  0.763384530563  m  0  0  1
0.666666666668  0.666666666668  0.811217703246  m  0  0  1
0  0  0.859009186535  m  0  0  1
0.333333333332  0.333333333332  0.906113652356  m  0  0  1
0.666666666668  0.666666666668  0.953359063014  m  0  0  1
