ATOMIC_SPECIES
Al 13 al.lda.lps

LATTICE_CONSTANT
7.50241114482

LATTICE_VECTORS
0.707106781187 0 0 #latvec1
0.353553390593 0.612372435696 0 #latvec2
0 0 12.124355653 #latvec3

ATOMIC_POSITIONS
Direct

Al #label
0 #magnetism
21 #number of atoms
0  0  0  m  0  0  1
0.333333333332  0.333333333332  0.0475326873115  m  0  0  1
0.666666666668  0.666666666668  0.0951187454092  m  0  0  1
0  0  0.142692359065  m  0  0  1
0.333333333332  0.333333333332  0.190326631543  m  0  0  1
0.666666666668  0.666666666668  0.237964584904  m  0  0  1
0  0  0.285587485105  m  0  0  1
0.333333333332  0.333333333332  0.333263734953  m  0  0  1
0.666666666668  0.666666666668  0.380888460157  m  0  0  1
0  0  0.428507833765  m  0  0  1
0.333333333332  0.333333333332  0.476172732691  m  0  0  1
0.666666666668  0.666666666668  0.523827267309  m  0  0  1
0  0  0.571492166235  m  0  0  1
0.333333333332  0.333333333332  0.619111539843  m  0  0  1
0.666666666668  0.666666666668  0.666736265047  m  0  0  1
0  0  0.714412514895  m  0  0  1
0.333333333332  0.333333333332  0.762035415096  m  0  0  1
0.666666666668  0.666666666668  0.809673368457  m  0  0  1
0  0  0.857307640935  m  0  0  1
0.333333333332  0.333333333332  0.904881254591  m  0  0  1
0.666666666668  0.666666666668  0.952467312689  m  0  0  1
