ATOMIC_SPECIES
Al 13 al.lda.lps

LATTICE_CONSTANT
7.50241114482

LATTICE_VECTORS
0.707106781187 0 0 #latvec1
0.353553390593 0.612372435696 0 #latvec2
0 0 12.124355653 #latvec3

ATOMIC_POSITIONS
Direct

Al #label
0 #magnetism
21 #number of atoms
0  0  0  m  0  0  1
0.333333333332  0.333333333332  0.0466404772329  m  0  0  1
0.666666666668  0.666666666668  0.093885712266  m  0  0  1
0  0  0.140989936213  m  0  0  1
0.333333333332  0.333333333332  0.188781500553  m  0  0  1
0.666666666668  0.666666666668  0.236614773884  m  0  0  1
0  0  0.284277476088  m  0  0  1
0.333333333332  0.333333333332  0.332544696575  m  0  0  1
0.666666666668  0.666666666668  0.380228078322  m  0  0  1
0  0  0.427850819812  m  0  0  1
0.333333333332  0.333333333332  0.475989420131  m  0  0  1
0.666666666668  0.666666666668  0.524010579869  m  0  0  1
0  0  0.572149180188  m  0  0  1
0.333333333332  0.333333333332  0.619771921678  m  0  0  1
0.666666666668  0.666666666668  0.667455303425  m  0  0  1
0  0  0.715722523912  m  0  0  1
0.333333333332  0.333333333332  0.763385226116  m  0  0  1
0.666666666668  0.666666666668  0.811218499447  m  0  0  1
0  0  0.859010063787  m  0  0  1
0.333333333332  0.333333333332  0.906114287734  m  0  0  1
0.666666666668  0.666666666668  0.953359522767  m  0  0  1
