ATOMIC_SPECIES
Al 13 al.lda.lps

LATTICE_CONSTANT
7.50241114482

LATTICE_VECTORS
0.707106781187 0 0 #latvec1
0.353553390593 0.612372435696 0 #latvec2
0 0 12.124355653 #latvec3

ATOMIC_POSITIONS
Direct

Al #label
0 #magnetism
21 #number of atoms
0  0  0  m  0  0  1
0.333333333332  0.333333333332  0.0461584057066  m  0  0  1
0.666666666668  0.666666666668  0.0930528049709  m  0  0  1
0  0  0.139997314283  m  0  0  1
0.333333333332  0.333333333332  0.18778774066  m  0  0  1
0.666666666668  0.666666666668  0.235718286546  m  0  0  1
0  0  0.283536634156  m  0  0  1
0.333333333332  0.333333333332  0.331997664669  m  0  0  1
0.666666666668  0.666666666668  0.379775400658  m  0  0  1
0  0  0.427503863989  m  0  0  1
0.333333333332  0.333333333332  0.475860491946  m  0  0  1
0.666666666668  0.666666666668  0.524139508054  m  0  0  1
0  0  0.572496136011  m  0  0  1
0.333333333332  0.333333333332  0.620224599342  m  0  0  1
0.666666666668  0.666666666668  0.668002335331  m  0  0  1
0  0  0.716463365844  m  0  0  1
0.333333333332  0.333333333332  0.764281713454  m  0  0  1
0.666666666668  0.666666666668  0.81221225934  m  0  0  1
0  0  0.860002685717  m  0  0  1
0.333333333332  0.333333333332  0.906947195029  m  0  0  1
0.666666666668  0.666666666668  0.953841594293  m  0  0  1
