ATOMIC_SPECIES
Si 28 /home/mhchen_pkuhpc/mhchen_cls/lustre2/5_liurenxi/03a01_abacus-lcao-scan/pp/SG15_ONCV_v1.0_upf/Si_ONCV_PBE-1.0.upf

LATTICE_CONSTANT
10.4879

LATTICE_VECTORS
0.5 0.5 0.000000
0.5 0.000000 0.5
0.000000 0.5 0.5

NUMERICAL_ORBITAL
/home/mhchen_pkuhpc/mhchen_cls/lustre2/5_liurenxi/03a01_abacus-lcao-scan/orb/Orb_DZP_E100_Full/Si/Si_gga_8au_100Ry_2s2p1d.orb
#/home/mhchen_pkuhpc/mhchen_cls/lustre2/5_liurenxi/03a01_abacus-lcao-scan/orb/Orb_TZDP_E100_Full/Si/Si_gga_8au_100Ry_3s3p2d.orb



ATOMIC_POSITIONS
Cartesian    # Cartesian(Unit is LATTICE_CONSTANT)
Si
0.0
2
0.000000 0.000000 0.000000 m 0 0 0
0.250000 0.250000 0.250000 m 0 0 0