ATOMIC_SPECIES
Al 27 al.lda.lps

LATTICE_CONSTANT
7.50241114482

LATTICE_VECTORS
0.707106781187 0 0 #latvec1
0.353553390593 0.612372435696 0 #latvec2
0 0 12.7017059222 #latvec3

ATOMIC_POSITIONS
Direct

Al #label
0 #magnetism
22 #number of atoms
0 0 0.00134201821791 0 0 1 0 0 0
0.333333333332 0.333333333332 0.0438963849611 0 0 1 0 0 0
0.666666666668 0.666666666668 0.0919471073602 0 0 1 0 0 0
0 0 0.135383308372 0 0 1 0 0 0
0.333333333332 0.333333333332 0.180871079143 0 0 1 0 0 0
0 0 0.228062211746 0 0 1 0 0 0
0.333333333332 0.333333333332 0.273421388937 0 0 1 0 0 0
0.666666666668 0.666666666668 0.317061022836 0 0 1 0 0 0
0 0 0.364875557299 0 0 1 0 0 0
0.333333333332 0.333333333332 0.40763338928 0 0 1 0 0 0
0.666666666668 0.666666666668 0.454534174966 0 0 1 0 0 0
0.333333333332 0.333333333332 0.501591227312 0 0 1 0 0 0
0 0 0.544201096387 0 0 1 0 0 0
0.666666666668 0.666666666668 0.592047274693 0 0 1 0 0 0
0.333333333332 0.333333333332 0.635828217984 0 0 1 0 0 0
0 0 0.681076035947 0 0 1 0 0 0
0.333333333332 0.333333333332 0.728367656986 0 0 1 0 0 0
0 0 0.773695477233 0 0 1 0 0 0
0.666666666668 0.666666666668 0.817181827687 0 0 1 0 0 0
0.333333333332 0.333333333332 0.865112665228 0 0 1 0 0 0
0 0 0.907422519012 0 0 1 0 0 0
0.666666666668 0.666666666668 0.954448358414 0 0 1 0 0 0
