%BLOCK LATTICE_CART
3.093974199229    0.000000000000    0.000000000000    
-1.546987099614    2.679460255186    0.000000000000    
0.000000000000    0.000000000000    5.059952092639    
%END BLOCK LATTICE_CART
%BLOCK POSITIONS_FRAC
Mg    0.000000000000    0.000000000000    0.000000000000
Mg    0.666666666667    0.333333333333    0.500000000000
%END BLOCK POSITIONS_FRAC
%BLOCK SPECIES_POT
Mg mg.lda.recpot
%END BLOCK SPECIES_POT
