%BLOCK LATTICE_CART
   2.805799707700000   0.000000000000000   0.000000000000000
   1.402899853850000   2.429893824799152   0.000000000000000
   0.000000000000003   0.000000000000002  50.498172060046329
%END BLOCK LATTICE_CART
%BLOCK POSITIONS_FRAC
    Al   0.000000000000000   0.000000000000000   0.000108330782027
    Al   0.333333333300000   0.333333333300000   0.045437113126592
    Al   0.666666666700000   0.666666666700000   0.090699338788605
    Al   0.000000000000000   0.000000000000000   0.136009546749484
    Al   0.333333333300000   0.333333333300000   0.181596613080132
    Al   0.000000000000000   0.000000000000000   0.227331589937267
    Al   0.366666666700000   0.366666666700000   0.273112406831762
    Al   0.700000000000000   0.700000000000000   0.318433829906662
    Al   0.033333333300000   0.033333333300000   0.363690006729226
    Al   0.366666666700000   0.366666666700000   0.408998465054123
    Al   0.700000000000000   0.700000000000000   0.454545672868192
    Al   0.366666666700000   0.366666666700000   0.500092868700755
    Al   0.033333333300000   0.033333333300000   0.545401282169415
    Al   0.700000000000000   0.700000000000000   0.590657383995164
    Al   0.366666666700000   0.366666666700000   0.635978704967924
    Al   0.000000000000000   0.000000000000000   0.681759404674178
    Al   0.333333333300000   0.333333333300000   0.727494252505516
    Al   0.000000000000000   0.000000000000000   0.773081186324528
    Al   0.666666666700000   0.666666666700000   0.818391270464672
    Al   0.333333333300000   0.333333333300000   0.863653391034628
    Al   0.000000000000000   0.000000000000000   0.908982104531006
    Al   0.666666666700000   0.666666666700000   0.954545203665191
%END BLOCK POSITIONS_FRAC
%BLOCK SPECIES_POT
    Al al_HC.lda.recpot                                                                       
%END BLOCK SPECIES_POT
%BLOCK ION_OPTIMIZATION
           0           0           1
           0           0           1
           0           0           1
           0           0           1
           0           0           1
           0           0           1
           0           0           1
           0           0           1
           0           0           1
           0           0           1
           0           0           1
           0           0           1
           0           0           1
           0           0           1
           0           0           1
           0           0           1
           0           0           1
           0           0           1
           0           0           1
           0           0           1
           0           0           1
           0           0           1
%END BLOCK ION_OPTIMIZATION
