%BLOCK LATTICE_CART
   2.932800683330093   0.000000008127800   0.000000021678413
   0.000000008127800   2.932800683984885  -0.000000006434675
   0.000000021678413  -0.000000006434675   2.932800683985320
%END BLOCK LATTICE_CART
%BLOCK POSITIONS_FRAC
    Mg   0.000000000000000   0.000000000000000   0.000000000000000
%END BLOCK POSITIONS_FRAC
%BLOCK SPECIES_POT
    Mg mg.lda.recpot                                                                          
%END BLOCK SPECIES_POT
