ATOMIC_SPECIES
C 12 /home/mhchen_pkuhpc/mhchen_cls/lustre2/5_liurenxi/03a01_abacus-lcao-scan/pp/SG15_ONCV_v1.0_upf/C_ONCV_PBE-1.0.upf
O 16 /home/mhchen_pkuhpc/mhchen_cls/lustre2/5_liurenxi/03a01_abacus-lcao-scan/pp/SG15_ONCV_v1.0_upf/O_ONCV_PBE-1.0.upf
H 1 /home/mhchen_pkuhpc/mhchen_cls/lustre2/5_liurenxi/03a01_abacus-lcao-scan/pp/SG15_ONCV_v1.0_upf/H_ONCV_PBE-1.0.upf

LATTICE_CONSTANT
1.8897161646321

LATTICE_VECTORS
20 0 0
0 20 0
0 0 20

NUMERICAL_ORBITAL
/home/mhchen_pkuhpc/mhchen_cls/lustre2/5_liurenxi/03a01_abacus-lcao-scan/orb/Orb_DZP_E100_Full/C/C_gga_10au_100Ry_2s2p1d.orb
/home/mhchen_pkuhpc/mhchen_cls/lustre2/5_liurenxi/03a01_abacus-lcao-scan/orb/Orb_DZP_E100_Full/O/O_gga_10au_100Ry_2s2p1d.orb
/home/mhchen_pkuhpc/mhchen_cls/lustre2/5_liurenxi/03a01_abacus-lcao-scan/orb/Orb_DZP_E100_Full/H/H_gga_10au_100Ry_2s1p.orb

ATOMIC_POSITIONS
Cartesian    # Cartesian(Unit is LATTICE_CONSTANT)
C
0.0
12
-2.007106 0.763846 -0.108351 m 0 0 0 
-1.463081 -0.151912 0.794993 m 0 0 0 
-2.147579 -1.329509 1.088368 m 0 0 0 
-3.374321 -1.603143 0.489586 m 0 0 0 
-3.914373 -0.683855 -0.409103 m 0 0 0 
-3.237050 0.492961 -0.709613 m 0 0 0 
2.036975 0.786504 0.149549 m 0 0 0 
1.590403 0.069686 -0.957415 m 0 0 0 
2.241737 -1.106977 -1.312811 m 0 0 0 
3.331567 -1.566560 -0.574864 m 0 0 0 
3.769684 -0.839690 0.528644 m 0 0 0 
3.122484 0.338350 0.896049 m 0 0 0 
O
0.0
2
-1.388504 1.929852 -0.443121 m 0 0 0 
1.353117 1.938272 0.472313 m 0 0 0 
H
0.0
12
-0.523812 1.964652 -0.006461 m 0 0 0 
-0.510651 0.056657 1.264256 m 0 0 0 
-1.715113 -2.032145 1.787842 m 0 0 0 
-3.902466 -2.517387 0.719795 m 0 0 0 
-4.867073 -0.882294 -0.881132 m 0 0 0 
-3.643166 1.213434 -1.405759 m 0 0 0 
1.784285 2.348749 1.229711 m 0 0 0 
0.744551 0.436798 -1.521858 m 0 0 0 
1.892146 -1.664973 -2.170184 m 0 0 0 
3.833023 -2.481154 -0.856667 m 0 0 0 
4.613763 -1.185010 1.109263 m 0 0 0 
3.459885 0.903038 1.756949 m 0 0 0 
