ATOMIC_SPECIES
Mg 12 mg.lda.lps

LATTICE_CONSTANT
5.870291675423254  // add lattice constant

LATTICE_VECTORS
1.000000000000    0.000000000000    0.000000000000    
-0.500000000000    0.866025403784    0.000000000000    
0.000000000000    0.000000000000    1.635421553903    

ATOMIC_POSITIONS
Direct

Mg
0.0
2
    0.000000000000    0.000000000000    0.000000000000 1 1 1
    0.666666666667    0.333333333333    0.500000000000 1 1 1
