INPUT_PARAMETERS
calculation scf
ntype   3
#Parameters (Accuracy)
ecutwfc   180

smearing_method  gaussian
basis_type  pw
dft_functional   scan
relax_nmax 50
force_thr_ev 0.001
