ATOMIC_SPECIES
Pb 207 /public1/home/sc80483/5_liurenxi/5_ABACUS_SCAN/SG15_ONCV_v1.0_upf/Pb_ONCV_PBE-1.0.upf
Ti 48 /public1/home/sc80483/5_liurenxi/5_ABACUS_SCAN/SG15_ONCV_v1.0_upf/Ti_ONCV_PBE-1.0.upf
O 16 /public1/home/sc80483/5_liurenxi/5_ABACUS_SCAN/SG15_ONCV_v1.0_upf/O_ONCV_PBE-1.0.upf

LATTICE_CONSTANT
1.8897259886

LATTICE_VECTORS
3.861215 0 0
0 3.861215 0
0 0 4.627000

NUMERICAL_ORBITAL
/public1/home/sc80483/5_liurenxi/5_ABACUS_SCAN/to_lrx/Orb_TZDP_E100_Full//Pb/Pb_gga_10au_100Ry_3s3p3d2f.orb
/public1/home/sc80483/5_liurenxi/5_ABACUS_SCAN/to_lrx/Orb_TZDP_E100_Full//Ti/Ti_gga_10au_100Ry_6s3p3d2f.orb
/public1/home/sc80483/5_liurenxi/5_ABACUS_SCAN/to_lrx/Orb_TZDP_E100_Full//O/O_gga_10au_100Ry_3s3p2d.orb

ATOMIC_POSITIONS
Direct    # Cartesian(Unit is LATTICE_CONSTANT)
Pb
0.0
1
0.5000000000000000    0.5000000000000000    0.9692120000000000 0 0 1
Ti
0.0
1
0.0000000000000000    0.0000000000000000    0.520923 0 0 1
O
0.0
3
0.0000000000000000    0.5000000000000000    0.626658 0 0 1
0.5000000000000000    0.0000000000000000    0.626658 0 0 1
0.0000000000000000    0.0000000000000000    0.142449 0 0 1
