ATOMIC_SPECIES
Mg 24.305 mg.gga.psp blps
Al 26.981 al.gga.psp blps

LATTICE_CONSTANT
1.8897259885789233  // add lattice constant

LATTICE_VECTORS
4.383596960000    0.000000000000    0.000000000000    
0.000000000000    4.383596960000    0.000000000000    
0.000000000000    0.000000000000    8.542532960000    

ATOMIC_POSITIONS
Direct

Mg
0.0
6
    0.500000000000    0.500000000000    0.000000000000 1 1 1
    0.500000000000    0.000000000000    0.250000000000 1 1 1
    0.000000000000    0.500000000000    0.250000000000 1 1 1
    0.000000000000    0.000000000000    0.500000000000 1 1 1
    0.000000000000    0.500000000000    0.750000000000 1 1 1
    0.500000000000    0.000000000000    0.750000000000 1 1 1
Al
0.0
2
    0.000000000000    0.000000000000    0.000000000000 1 1 1
    0.500000000000    0.500000000000    0.500000000000 1 1 1
