%BLOCK LATTICE_CART
   2.805799707700000   0.000000000000000   0.000000000000000
   1.402899853850000   2.429893824799152   0.000000000000000
   0.000000000000003   0.000000000000002  46.369929281014443
%END BLOCK LATTICE_CART
%BLOCK POSITIONS_FRAC
    Al   0.000000000000000   0.000000000000000   0.000247228839294
    Al   0.333333333300000   0.333333333300000   0.049900083752068
    Al   0.666666666700000   0.666666666700000   0.099537205389049
    Al   0.000000000000000   0.000000000000000   0.149153614183286
    Al   0.333333333300000   0.333333333300000   0.199353183678386
    Al   0.933333333300000   0.933333333300000   0.250626890719000
    Al   0.266666666700000   0.266666666700000   0.300751824289275
    Al   0.600000000000000   0.600000000000000   0.350293669447957
    Al   0.933333333300000   0.933333333300000   0.399847159881712
    Al   0.266666666700000   0.266666666700000   0.449999708549171
    Al   0.933333333300000   0.933333333300000   0.500152326904413
    Al   0.600000000000000   0.600000000000000   0.549705948865235
    Al   0.266666666700000   0.266666666700000   0.599247858450085
    Al   0.933333333300000   0.933333333300000   0.649372862929875
    Al   0.333333333300000   0.333333333300000   0.700646701283016
    Al   1.000000000000000   1.000000000000000   0.750846427148108
    Al   0.666666666700000   0.666666666700000   0.800463031517853
    Al   0.333333333300000   0.333333333300000   0.850100281218940
    Al   0.000000000000000   0.000000000000000   0.899753128753626
    Al   0.666666666700000   0.666666666700000   0.950000168571329
%END BLOCK POSITIONS_FRAC
%BLOCK SPECIES_POT
    Al al_HC.lda.recpot                                                                       
%END BLOCK SPECIES_POT
%BLOCK ION_OPTIMIZATION
           0           0           1
           0           0           1
           0           0           1
           0           0           1
           0           0           1
           0           0           1
           0           0           1
           0           0           1
           0           0           1
           0           0           1
           0           0           1
           0           0           1
           0           0           1
           0           0           1
           0           0           1
           0           0           1
           0           0           1
           0           0           1
           0           0           1
           0           0           1
%END BLOCK ION_OPTIMIZATION
