ATOMIC_SPECIES
Ga  Ga_mass  Ga_pesudopotential
P  P_mass  P_pesudopotential
H  H_mass  H_pesudopotential
O  O_mass  O_pesudopotential
C  C_mass  C_pesudopotential

NUMERICAL_ORBITAL
Ga_orbital
P_orbital
H_orbital
O_orbital
C_orbital

LATTICE_CONSTANT
1.889727000000

LATTICE_VECTORS
46.817279999960  0.000000000000  0.000000000000
0.000000000000  30.388121999996  0.000000000000
0.000000000000  0.000000000000  49.657229999978

ATOMIC_POSITIONS
Direct

Ga
0
540
0.000552742761  0.015841059709  0.008870071038  1  1  1
0.000712302184  0.015913549659  0.342274868682  1  1  1
0.000637972833  0.015989555747  0.675665874585  1  1  1
0.333928307804  0.015928679002  0.008912553835  1  1  1
0.333905334312  0.015633791512  0.341152407917  1  1  1
0.333975572043  0.015950293542  0.675586417169  1  1  1
0.667303082847  0.015973217693  0.008970908421  1  1  1
0.667293361515  0.015925885477  0.342269405763  1  1  1
0.667302136506  0.016000764327  0.675642532477  1  1  1
0.332159643699  0.015016060724  0.225817272132  1  1  1
0.332143904019  0.015077617821  0.559434025854  1  1  1
0.332130168197  0.014958767732  0.892764585641  1  1  1
0.665476163680  0.015018778719  0.226053496535  1  1  1
0.665478314681  0.015065801659  0.559437543495  1  1  1
0.665466115811  0.015003310533  0.892750177809  1  1  1
0.999086321760  0.014925032976  0.226136370799  1  1  1
0.998819073148  0.015053844669  0.559415242767  1  1  1
0.998777446853  0.015058686923  0.892787427460  1  1  1
0.001447422514  0.016039552455  0.117625428526  1  1  1
0.001212693400  0.018618025538  0.451062833918  1  1  1
0.001217013892  0.018933455778  0.784390342736  1  1  1
0.334033640511  0.015871087106  0.117846617030  1  1  1
0.334527671647  0.016418608650  0.450957758695  1  1  1
0.334540871363  0.016330977856  0.784257008067  1  1  1
0.667862205206  0.018540598355  0.117775208838  1  1  1
0.667861054703  0.017034891542  0.450986746623  1  1  1
0.667859244793  0.016491216610  0.784292938530  1  1  1
0.166472252089  0.015714603308  0.009018554941  1  1  1
0.166534971816  0.015386487866  0.340883930857  1  1  1
0.166203375005  0.015650544403  0.675709639469  1  1  1
0.499594271938  0.015624560650  0.009002429872  1  1  1
0.499570143923  0.015643079639  0.342364988851  1  1  1
0.499643658771  0.015653045641  0.675717197924  1  1  1
0.832932307574  0.015617311766  0.009007158058  1  1  1
0.832915847264  0.015604399118  0.342372057374  1  1  1
0.832907225832  0.015650369083  0.675718172873  1  1  1
0.165755811079  0.008523310478  0.225619378103  1  1  1
0.163707670769  0.012122049494  0.559028937252  1  1  1
0.163731212112  0.012130185816  0.892355879790  1  1  1
0.497080977677  0.012159376166  0.225683627590  1  1  1
0.497038857519  0.012128991576  0.559040819409  1  1  1
0.497044313300  0.012137623069  0.892387999752  1  1  1
0.830391627456  0.012109160757  0.225675195480  1  1  1
0.830370689980  0.012129377273  0.559041389425  1  1  1
0.830412405316  0.012125765653  0.892384988433  1  1  1
0.167301616004  0.015535824920  0.118893893064  1  1  1
0.163273005000  0.980840019352  0.436149824884  1  1  1
0.163263420632  0.980850971867  0.769519362581  1  1  1
0.496613283855  0.980869028281  0.102840831111  1  1  1
0.496623637431  0.980839315505  0.436163536962  1  1  1
0.496621226512  0.980848770850  0.769503894863  1  1  1
0.829981563640  0.980881424596  0.102873334430  1  1  1
0.829960656519  0.980829705254  0.436179380827  1  1  1
0.829952781794  0.980845077419  0.769513039353  1  1  1
0.083411079948  0.015801730751  0.008781145560  1  1  1
0.083652699361  0.015834628557  0.341960243779  1  1  1
0.083545374998  0.015905099741  0.675684777702  1  1  1
0.416866736034  0.015870194138  0.008976932093  1  1  1
0.416875138416  0.015795493850  0.342291859352  1  1  1
0.416907514589  0.015903625154  0.675660362000  1  1  1
0.750218801588  0.015883033557  0.008995410035  1  1  1
0.750238050692  0.015849440276  0.342327262331  1  1  1
0.750218040728  0.015919763542  0.675683152342  1  1  1
0.083416639467  0.018465374377  0.229860772694  1  1  1
0.081460378758  0.018775551929  0.561629658779  1  1  1
0.081461708900  0.018613536130  0.894922565975  1  1  1
0.414904016825  0.018647002962  0.228146780056  1  1  1
0.414789327236  0.018820811409  0.561643763619  1  1  1
0.414771989159  0.018586785162  0.894905821242  1  1  1
0.748127314702  0.018736922507  0.228248973122  1  1  1
0.748119341889  0.018806641186  0.561647134514  1  1  1
0.748125852126  0.018653225293  0.894915527906  1  1  1
0.085052359048  0.015370545426  0.119604361826  1  1  1
0.085234190338  0.015038281949  0.454525210613  1  1  1
0.085199789122  0.015052579406  0.788035180986  1  1  1
0.418467626481  0.014549483051  0.119967269435  1  1  1
0.418566569989  0.014974946651  0.454685795747  1  1  1
0.418595405426  0.014860697484  0.787795578484  1  1  1
0.751887355767  0.015020663105  0.121349517404  1  1  1
0.751902111554  0.014934160769  0.454723555506  1  1  1
0.751915749711  0.014917279321  0.787913468672  1  1  1
0.250047523403  0.015821917789  0.007492978142  1  1  1
0.249813431323  0.015778341856  0.340671693399  1  1  1
0.249854516537  0.015904834102  0.674240416054  1  1  1
0.583195756706  0.015880802191  0.007566612159  1  1  1
0.583187336316  0.015896321612  0.340900785499  1  1  1
0.583206625707  0.015922888441  0.674255327050  1  1  1
0.916530397251  0.015840389118  0.007538331907  1  1  1
0.916549164230  0.015852520935  0.340899349692  1  1  1
0.916530000742  0.015891459844  0.674247244122  1  1  1
0.247904007291  0.011190851566  0.225918416766  1  1  1
0.248031205888  0.015896777559  0.563057496614  1  1  1
0.248048544781  0.015363439344  0.895007625713  1  1  1
0.581368431365  0.015866021578  0.229680664493  1  1  1
0.581363055400  0.015880287171  0.563053414020  1  1  1
0.581355657240  0.015623828327  0.895685786684  1  1  1
0.914781160007  0.015762748422  0.229750490041  1  1  1
0.914695931026  0.015858923973  0.563011718675  1  1  1
0.914688823462  0.015366441711  0.894893989548  1  1  1
0.249929019900  0.015813212064  0.117681465791  1  1  1
0.254003156711  0.018585000518  0.449185426669  1  1  1
0.254014863749  0.018531750406  0.782474693501  1  1  1
0.587375250023  0.018666588807  0.115864781098  1  1  1
0.587354168000  0.018705764959  0.449216900595  1  1  1
0.587346895337  0.018676836004  0.782532969443  1  1  1
0.920965258913  0.018220360631  0.115855616617  1  1  1
0.920720797676  0.018733320061  0.449213205440  1  1  1
0.920739027766  0.018708558214  0.782535789089  1  1  1
0.125401403520  0.064065151767  0.054984394735  1  1  1
0.127403834880  0.064501825667  0.388955612080  1  1  1
0.127296548748  0.064562570888  0.722521345662  1  1  1
0.460765085871  0.064587203658  0.055651054151  1  1  1
0.460637609772  0.064561735765  0.389195794529  1  1  1
0.460676355286  0.064566718566  0.722509689837  1  1  1
0.793979951279  0.064570237481  0.055822768261  1  1  1
0.793959524104  0.064613174371  0.389439401004  1  1  1
0.793979370793  0.064575199700  0.722587022080  1  1  1
0.125158094230  0.064310574744  0.277491801845  1  1  1
0.124915981691  0.064767826691  0.611124283981  1  1  1
0.125017810080  0.064762433943  0.944436712298  1  1  1
0.458347753878  0.064834855201  0.277808454296  1  1  1
0.458282123239  0.064760082409  0.611122677747  1  1  1
0.458227016653  0.064778397826  0.944451212470  1  1  1
0.791601211480  0.064797111089  0.277814144870  1  1  1
0.791574670080  0.064759822865  0.611119295208  1  1  1
0.791603508975  0.064773350809  0.944466670297  1  1  1
0.125581222869  0.064555587199  0.165749567058  1  1  1
0.125464735938  0.063790534110  0.497031258280  1  1  1
0.125449431740  0.063811888921  0.830387968199  1  1  1
0.458738441695  0.063732797816  0.163634877480  1  1  1
0.458790493496  0.063796187662  0.497042451356  1  1  1
0.458786310462  0.063801087402  0.830387405619  1  1  1
0.792143354662  0.063814189540  0.163712299662  1  1  1
0.792123911223  0.063801402632  0.497052634451  1  1  1
0.792126258474  0.063814692604  0.830394450302  1  1  1
0.292078629658  0.063801122499  0.053749212151  1  1  1
0.292275979325  0.064064163446  0.386962640351  1  1  1
0.292235901540  0.064056341740  0.720265737547  1  1  1
0.625515381155  0.064037624391  0.053476375227  1  1  1
0.625550567593  0.064033480967  0.386862316988  1  1  1
0.625566969648  0.064022887128  0.720198668302  1  1  1
0.958896484658  0.064027036921  0.053570618304  1  1  1
0.958843109276  0.064022384998  0.386781508417  1  1  1
0.958823197013  0.064028828905  0.720099689208  1  1  1
0.291530871137  0.063907523224  0.276423733654  1  1  1
0.291930468933  0.064091418242  0.609828768427  1  1  1
0.291891040156  0.064021213938  0.943079786324  1  1  1
0.625243046453  0.064097300407  0.276498916999  1  1  1
0.625263534221  0.064083502640  0.609823721680  1  1  1
0.625243629362  0.064079695747  0.943170475204  1  1  1
0.958614839572  0.064107083837  0.276558475706  1  1  1
0.958604325647  0.064091430064  0.609852431673  1  1  1
0.958556792367  0.064025526548  0.943080520282  1  1  1
0.290581420242  0.064896438919  0.165601416245  1  1  1
0.291824529852  0.064517681826  0.498770494047  1  1  1
0.291941558025  0.064577352147  0.832118410046  1  1  1
0.625132823284  0.064550237983  0.165438752792  1  1  1
0.625152815805  0.064520614189  0.498766336813  1  1  1
0.625205236499  0.064544048560  0.832086851199  1  1  1
0.958581613271  0.064490380775  0.165421432250  1  1  1
0.958479814173  0.064537715966  0.498774170758  1  1  1
0.958582299713  0.064603285862  0.832068256753  1  1  1
0.042666817251  0.064090035672  0.054905039166  1  1  1
0.043249134343  0.064148678222  0.388512635347  1  1  1
0.043259123920  0.064159982951  0.721838832396  1  1  1
0.376331189844  0.064113861392  0.055190987760  1  1  1
0.376457348577  0.064130069891  0.388596793412  1  1  1
0.376501088914  0.064162568023  0.721931315963  1  1  1
0.709889304807  0.064161680477  0.055203696408  1  1  1
0.709839317900  0.064166470597  0.388601719369  1  1  1
0.709821944093  0.064146988413  0.721915883877  1  1  1
0.041355240178  0.064489556342  0.277852657616  1  1  1
0.041301326309  0.064441461057  0.611121863903  1  1  1
0.041289342903  0.064462850613  0.944424985142  1  1  1
0.374715960742  0.064552083384  0.277869215261  1  1  1
0.374647168744  0.064439152764  0.611094439836  1  1  1
0.374610527850  0.064444985846  0.944455752795  1  1  1
0.707963901038  0.064463471088  0.277812335629  1  1  1
0.707961793436  0.064433822360  0.611095637302  1  1  1
0.707967075879  0.064457650644  0.944476992546  1  1  1
0.041591744422  0.064485259437  0.165389922029  1  1  1
0.041484157263  0.064689072911  0.498847792832  1  1  1
0.041498187252  0.064732467230  0.832217446754  1  1  1
0.374634746948  0.064689973594  0.165524833697  1  1  1
0.374775021058  0.064638632649  0.498813806138  1  1  1
0.374811389504  0.064678990242  0.832203715887  1  1  1
0.708122649080  0.064697402029  0.165516605693  1  1  1
0.708116657355  0.064665763838  0.498833878318  1  1  1
0.708119623366  0.064677011329  0.832185147198  1  1  1
0.208254686280  0.064019005999  0.054697757055  1  1  1
0.205782855890  0.064262450677  0.388481030468  1  1  1
0.205813531657  0.064285787559  0.721870055897  1  1  1
0.539170459275  0.064296985752  0.055190004406  1  1  1
0.539154666008  0.064272554045  0.388508923535  1  1  1
0.539168532623  0.064280321483  0.721856829628  1  1  1
0.872538319821  0.064282899904  0.055214104539  1  1  1
0.872504713554  0.064283868377  0.388528407315  1  1  1
0.872506140357  0.064282737186  0.721872504961  1  1  1
0.208016127707  0.064047161549  0.276405992512  1  1  1
0.207831709849  0.064241325838  0.611026983271  1  1  1
0.207887888069  0.064165803807  0.944177093355  1  1  1
0.541188848308  0.064232178173  0.277635947554  1  1  1
0.541176528067  0.064243075091  0.611022578589  1  1  1
0.541181196349  0.064227810524  0.944332189893  1  1  1
0.874509000845  0.064264639196  0.277729389716  1  1  1
0.874502197958  0.064244159482  0.611040642759  1  1  1
0.874546503036  0.064184904671  0.944268064466  1  1  1
0.207730819566  0.064761539769  0.165762302692  1  1  1
0.207967643210  0.066758685299  0.500575100217  1  1  1
0.207871744986  0.066794212640  0.833801745110  1  1  1
0.541294909281  0.066739341524  0.167205378384  1  1  1
0.541293473011  0.066725528050  0.500559288304  1  1  1
0.541249645217  0.066735534612  0.833836673661  1  1  1
0.874663454621  0.066764670745  0.167263392256  1  1  1
0.874617512051  0.066729356377  0.500546278956  1  1  1
0.874532801987  0.066782539401  0.833771333560  1  1  1
0.000000000000  0.130439996734  0.000000000000  0  0  0
0.000000000000  0.130439996734  0.333333333334  0  0  0
0.000000000000  0.130439996734  0.666666666666  0  0  0
0.333333333334  0.130439996734  0.000000000000  0  0  0
0.333333333334  0.130439996734  0.333333333334  0  0  0
0.333333333334  0.130439996734  0.666666666666  0  0  0
0.666666666666  0.130439996734  0.000000000000  0  0  0
0.666666666666  0.130439996734  0.333333333334  0  0  0
0.666666666666  0.130439996734  0.666666666666  0  0  0
0.000000000000  0.130439996734  0.222223341380  0  0  0
0.000000000000  0.130439996734  0.555556674713  0  0  0
0.000000000000  0.130439996734  0.888890008047  0  0  0
0.333333333334  0.130439996734  0.222223341380  0  0  0
0.333333333334  0.130439996734  0.555556674713  0  0  0
0.333333333334  0.130439996734  0.888890008047  0  0  0
0.666666666666  0.130439996734  0.222223341380  0  0  0
0.666666666666  0.130439996734  0.555556674713  0  0  0
0.666666666666  0.130439996734  0.888890008047  0  0  0
0.000000000000  0.130439996734  0.111110001801  0  0  0
0.000000000000  0.130439996734  0.444443335133  0  0  0
0.000000000000  0.130439996734  0.777776668467  0  0  0
0.333333333334  0.130439996734  0.111110001801  0  0  0
0.333333333334  0.130439996734  0.444443335133  0  0  0
0.333333333334  0.130439996734  0.777776668467  0  0  0
0.666666666666  0.130439996734  0.111110001801  0  0  0
0.666666666666  0.130439996734  0.444443335133  0  0  0
0.666666666666  0.130439996734  0.777776668467  0  0  0
0.166666666675  0.130439996734  0.000000000000  0  0  0
0.166666666675  0.130439996734  0.333333333334  0  0  0
0.166666666675  0.130439996734  0.666666666666  0  0  0
0.500000000009  0.130439996734  0.000000000000  0  0  0
0.500000000009  0.130439996734  0.333333333334  0  0  0
0.500000000009  0.130439996734  0.666666666666  0  0  0
0.833333333341  0.130439996734  0.000000000000  0  0  0
0.833333333341  0.130439996734  0.333333333334  0  0  0
0.833333333341  0.130439996734  0.666666666666  0  0  0
0.166666666675  0.130439996734  0.222223341380  0  0  0
0.166666666675  0.130439996734  0.555556674713  0  0  0
0.166666666675  0.130439996734  0.888890008047  0  0  0
0.500000000009  0.130439996734  0.222223341380  0  0  0
0.500000000009  0.130439996734  0.555556674713  0  0  0
0.500000000009  0.130439996734  0.888890008047  0  0  0
0.833333333341  0.130439996734  0.222223341380  0  0  0
0.833333333341  0.130439996734  0.555556674713  0  0  0
0.833333333341  0.130439996734  0.888890008047  0  0  0
0.166666666675  0.130439996734  0.111110001801  0  0  0
0.166666666675  0.130439996734  0.444443335133  0  0  0
0.166666666675  0.130439996734  0.777776668467  0  0  0
0.500000000009  0.130439996734  0.111110001801  0  0  0
0.500000000009  0.130439996734  0.444443335133  0  0  0
0.500000000009  0.130439996734  0.777776668467  0  0  0
0.833333333341  0.130439996734  0.111110001801  0  0  0
0.833333333341  0.130439996734  0.444443335133  0  0  0
0.833333333341  0.130439996734  0.777776668467  0  0  0
0.083333333327  0.130439996734  0.000000000000  0  0  0
0.083333333327  0.130439996734  0.333333333334  0  0  0
0.083333333327  0.130439996734  0.666666666666  0  0  0
0.416666666661  0.130439996734  0.000000000000  0  0  0
0.416666666661  0.130439996734  0.333333333334  0  0  0
0.416666666661  0.130439996734  0.666666666666  0  0  0
0.749999999993  0.130439996734  0.000000000000  0  0  0
0.749999999993  0.130439996734  0.333333333334  0  0  0
0.749999999993  0.130439996734  0.666666666666  0  0  0
0.083333333327  0.130439996734  0.222223341380  0  0  0
0.083333333327  0.130439996734  0.555556674713  0  0  0
0.083333333327  0.130439996734  0.888890008047  0  0  0
0.416666666661  0.130439996734  0.222223341380  0  0  0
0.416666666661  0.130439996734  0.555556674713  0  0  0
0.416666666661  0.130439996734  0.888890008047  0  0  0
0.749999999993  0.130439996734  0.222223341380  0  0  0
0.749999999993  0.130439996734  0.555556674713  0  0  0
0.749999999993  0.130439996734  0.888890008047  0  0  0
0.083333333327  0.130439996734  0.111110001801  0  0  0
0.083333333327  0.130439996734  0.444443335133  0  0  0
0.083333333327  0.130439996734  0.777776668467  0  0  0
0.416666666661  0.130439996734  0.111110001801  0  0  0
0.416666666661  0.130439996734  0.444443335133  0  0  0
0.416666666661  0.130439996734  0.777776668467  0  0  0
0.749999999993  0.130439996734  0.111110001801  0  0  0
0.749999999993  0.130439996734  0.444443335133  0  0  0
0.749999999993  0.130439996734  0.777776668467  0  0  0
0.250000000089  0.130439996734  0.000000000000  0  0  0
0.250000000089  0.130439996734  0.333333333334  0  0  0
0.250000000089  0.130439996734  0.666666666666  0  0  0
0.583333333421  0.130439996734  0.000000000000  0  0  0
0.583333333421  0.130439996734  0.333333333334  0  0  0
0.583333333421  0.130439996734  0.666666666666  0  0  0
0.916666666755  0.130439996734  0.000000000000  0  0  0
0.916666666755  0.130439996734  0.333333333334  0  0  0
0.916666666755  0.130439996734  0.666666666666  0  0  0
0.250000000089  0.130439996734  0.222223341380  0  0  0
0.250000000089  0.130439996734  0.555556674713  0  0  0
0.250000000089  0.130439996734  0.888890008047  0  0  0
0.583333333421  0.130439996734  0.222223341380  0  0  0
0.583333333421  0.130439996734  0.555556674713  0  0  0
0.583333333421  0.130439996734  0.888890008047  0  0  0
0.916666666755  0.130439996734  0.222223341380  0  0  0
0.916666666755  0.130439996734  0.555556674713  0  0  0
0.916666666755  0.130439996734  0.888890008047  0  0  0
0.250000000089  0.130439996734  0.111110001801  0  0  0
0.250000000089  0.130439996734  0.444443335133  0  0  0
0.250000000089  0.130439996734  0.777776668467  0  0  0
0.583333333421  0.130439996734  0.111110001801  0  0  0
0.583333333421  0.130439996734  0.444443335133  0  0  0
0.583333333421  0.130439996734  0.777776668467  0  0  0
0.916666666755  0.130439996734  0.111110001801  0  0  0
0.916666666755  0.130439996734  0.444443335133  0  0  0
0.916666666755  0.130439996734  0.777776668467  0  0  0
0.125289054693  0.196609246647  0.055020525323  1  1  1
0.126320462380  0.196000625781  0.389828818686  1  1  1
0.126088962234  0.195883166013  0.723497571239  1  1  1
0.459439510258  0.195869960582  0.056822789155  1  1  1
0.459440384715  0.195879364157  0.390151669648  1  1  1
0.459469322698  0.195870387128  0.723509084382  1  1  1
0.792777445967  0.195871313548  0.056809810682  1  1  1
0.792776797974  0.195863397814  0.390183570056  1  1  1
0.792779036302  0.195871695384  0.723519363954  1  1  1
0.125094935416  0.196490182339  0.276492929948  1  1  1
0.125100079993  0.195905166199  0.611092669401  1  1  1
0.125192575428  0.195896691814  0.944345836714  1  1  1
0.458466952148  0.195872472490  0.277779938460  1  1  1
0.458439462872  0.195902478380  0.611092982371  1  1  1
0.458408829075  0.195893319143  0.944427294832  1  1  1
0.791763780499  0.195878953857  0.277785635860  1  1  1
0.791751985946  0.195904661690  0.611092549943  1  1  1
0.791762087791  0.195901606751  0.944430849648  1  1  1
0.125568971692  0.196150939009  0.165755584387  1  1  1
0.125470455001  0.198315851371  0.496916082708  1  1  1
0.125456672479  0.198287402861  0.830275718295  1  1  1
0.458792476897  0.198122865337  0.163613640609  1  1  1
0.458797281689  0.198346058143  0.496914780979  1  1  1
0.458796078572  0.198302011947  0.830279582695  1  1  1
0.792146101270  0.198201024856  0.163593854898  1  1  1
0.792132931164  0.198339249333  0.496923857325  1  1  1
0.792136667773  0.198299902653  0.830281632539  1  1  1
0.292059499732  0.196587024249  0.054759766200  1  1  1
0.292132550284  0.196317266367  0.388014546676  1  1  1
0.292159956920  0.196265745294  0.721417520588  1  1  1
0.625495753063  0.196292582258  0.054669623897  1  1  1
0.625498210425  0.196297220200  0.388013521597  1  1  1
0.625491650995  0.196306071431  0.721317956281  1  1  1
0.958859945282  0.196296222336  0.054715163685  1  1  1
0.958839322948  0.196300276666  0.388012146692  1  1  1
0.958841185196  0.196308867536  0.721358584371  1  1  1
0.291650579545  0.196876043728  0.276488480258  1  1  1
0.291917401384  0.196393614795  0.610675330576  1  1  1
0.291923273855  0.196369750530  0.944087483208  1  1  1
0.625225374360  0.196358517550  0.277454653966  1  1  1
0.625247287200  0.196386714392  0.610715306476  1  1  1
0.625247346796  0.196366876357  0.944165848380  1  1  1
0.958601761477  0.196387381784  0.277499900334  1  1  1
0.958586468972  0.196371970251  0.610807442474  1  1  1
0.958591400098  0.196386811709  0.944111591084  1  1  1
0.290698529444  0.195895255433  0.165744338079  1  1  1
0.292060293229  0.196112802724  0.498750012058  1  1  1
0.292049111234  0.196076235129  0.832177556666  1  1  1
0.625391446308  0.196106133586  0.165382438477  1  1  1
0.625393562905  0.196120959810  0.498733789741  1  1  1
0.625386814578  0.196093036717  0.832110374831  1  1  1
0.958778413288  0.196134415621  0.165410913693  1  1  1
0.958728966186  0.196132001675  0.498716201840  1  1  1
0.958719731190  0.196112299496  0.832085882672  1  1  1
0.042971565352  0.196547255981  0.054955245671  1  1  1
0.043163998012  0.196489110858  0.388564502500  1  1  1
0.043121846962  0.196480057696  0.721900511296  1  1  1
0.376405142423  0.196516817222  0.055254868398  1  1  1
0.376419666713  0.196480672649  0.388607959672  1  1  1
0.376471131168  0.196444698789  0.721932169298  1  1  1
0.709796607469  0.196463967130  0.055228219202  1  1  1
0.709787934024  0.196455194848  0.388601162580  1  1  1
0.709790594352  0.196464585417  0.721905576634  1  1  1
0.041485384821  0.196334589145  0.277662199334  1  1  1
0.041415114024  0.196317526692  0.610958222115  1  1  1
0.041351364701  0.196295625283  0.944149914307  1  1  1
0.374739217912  0.196266506699  0.277775057555  1  1  1
0.374739954065  0.196318765294  0.610931385199  1  1  1
0.374726690980  0.196304498455  0.944293270584  1  1  1
0.708070852176  0.196292345364  0.277660455118  1  1  1
0.708061073325  0.196317173936  0.610935442695  1  1  1
0.708080612596  0.196310598340  0.944305332636  1  1  1
0.041580903955  0.196169729704  0.165476065197  1  1  1
0.041573185424  0.196097867948  0.498957219773  1  1  1
0.041573831840  0.196082184292  0.832303708605  1  1  1
0.374672305090  0.196001047886  0.165751649226  1  1  1
0.374888331883  0.196087722169  0.498964522454  1  1  1
0.374912651658  0.196056012907  0.832364142133  1  1  1
0.708208086361  0.196068764195  0.165625200745  1  1  1
0.708225121347  0.196084603487  0.498967523689  1  1  1
0.708237515302  0.196058219710  0.832340762216  1  1  1
0.208162796925  0.196551100356  0.054769860024  1  1  1
0.205699715507  0.196349814724  0.388462595018  1  1  1
0.205711556301  0.196222566812  0.721956648113  1  1  1
0.539064457020  0.196219756327  0.055274539082  1  1  1
0.539048473852  0.196241832352  0.388590828974  1  1  1
0.539060377334  0.196233544323  0.721940067715  1  1  1
0.872424629382  0.196226050533  0.055287644590  1  1  1
0.872394528156  0.196232501579  0.388619491663  1  1  1
0.872398888990  0.196230888317  0.721959494818  1  1  1
0.208057760428  0.196733563717  0.276318224099  1  1  1
0.208027783329  0.196489560360  0.611030777833  1  1  1
0.208061594727  0.196480733780  0.944301277969  1  1  1
0.541367873644  0.196495913125  0.277659990958  1  1  1
0.541366802164  0.196483484045  0.611034924859  1  1  1
0.541359538931  0.196487837121  0.944368029840  1  1  1
0.874698017592  0.196473189063  0.277720325556  1  1  1
0.874693376085  0.196483337005  0.611046166587  1  1  1
0.874706239621  0.196500019324  0.944365362471  1  1  1
0.207857938989  0.195947519972  0.165830283664  1  1  1
0.207921114397  0.195928316611  0.499177725419  1  1  1
0.207919777570  0.195916466257  0.832567285942  1  1  1
0.541256609232  0.195928026140  0.165824592574  1  1  1
0.541249001030  0.195937504825  0.499171097493  1  1  1
0.541248380860  0.195927146061  0.832517706428  1  1  1
0.874593882326  0.195919916545  0.165865605175  1  1  1
0.874578001480  0.195936760723  0.499165450491  1  1  1
0.874596119544  0.195923629983  0.832537629487  1  1  1
0.000589905100  0.244692155582  0.009120784928  1  1  1
0.000679525819  0.244633348070  0.342463555937  1  1  1
0.000595793862  0.244594366091  0.675831616068  1  1  1
0.333910901476  0.244635262975  0.009119570286  1  1  1
0.333629666323  0.244739572891  0.342092167029  1  1  1
0.333918370834  0.244589519230  0.675791151786  1  1  1
0.667266104764  0.244596794700  0.009159552520  1  1  1
0.667246454073  0.244637047675  0.342463496983  1  1  1
0.667251303372  0.244564039977  0.675820923295  1  1  1
0.332384158236  0.247941215967  0.225685359597  1  1  1
0.332594243107  0.247747641029  0.559285048772  1  1  1
0.332586843675  0.247837261430  0.892643702839  1  1  1
0.665913792365  0.247789142554  0.225913037721  1  1  1
0.665929860051  0.247755322766  0.559285250182  1  1  1
0.665919844284  0.247792053055  0.892617208650  1  1  1
0.999396468312  0.247891662859  0.225995066797  1  1  1
0.999265437365  0.247773078173  0.559269240373  1  1  1
0.999239146889  0.247788779873  0.892627229591  1  1  1
0.001516871984  0.244681389961  0.117736089694  1  1  1
0.001249018365  0.244458480334  0.451068173438  1  1  1
0.001252064951  0.244463641463  0.784407870557  1  1  1
0.334042704841  0.244794548005  0.117940593900  1  1  1
0.334576503886  0.244481833113  0.451044130840  1  1  1
0.334592578242  0.244528523267  0.784376881096  1  1  1
0.667910931764  0.244431137273  0.117727165193  1  1  1
0.667912723193  0.244449930604  0.451061241260  1  1  1
0.667912654509  0.244429401248  0.784392789321  1  1  1
0.166345725649  0.244833839177  0.009042206862  1  1  1
0.166058944874  0.244823677388  0.340671594384  1  1  1
0.166024888910  0.244800138682  0.675856293511  1  1  1
0.499368182259  0.244808036585  0.009173400112  1  1  1
0.499349372249  0.244802123735  0.342508521967  1  1  1
0.499382979815  0.244792253042  0.675863543554  1  1  1
0.832721423825  0.244828016815  0.009167036685  1  1  1
0.832708208487  0.244855732791  0.342504063995  1  1  1
0.832708328204  0.244808478689  0.675857821084  1  1  1
0.165862247033  0.252371991682  0.225540657727  1  1  1
0.165396026870  0.248544055897  0.558949845015  1  1  1
0.165405245306  0.248555265597  0.892324627630  1  1  1
0.498732702080  0.248524175244  0.225609801822  1  1  1
0.498729029814  0.248527083781  0.558971999565  1  1  1
0.498726012302  0.248528192420  0.892323779355  1  1  1
0.832064803615  0.248553406021  0.225596594497  1  1  1
0.832058588628  0.248535923977  0.558964632310  1  1  1
0.832065777184  0.248543932792  0.892321408302  1  1  1
0.167404924661  0.245000808251  0.118846999376  1  1  1
0.163170594805  0.279850552085  0.434363798430  1  1  1
0.163173428792  0.279805129043  0.767742291117  1  1  1
0.496480060275  0.279798002307  0.101069545403  1  1  1
0.496512710898  0.279832303548  0.434374842958  1  1  1
0.496513965030  0.279819100597  0.767725760072  1  1  1
0.829872307413  0.279784732284  0.101078711784  1  1  1
0.829840333546  0.279829453534  0.434380271784  1  1  1
0.829844628022  0.279814514028  0.767731825021  1  1  1
0.083403908253  0.244807577828  0.008143451699  1  1  1
0.083611672750  0.244623743323  0.341815120945  1  1  1
0.083512920985  0.244605411224  0.675684777276  1  1  1
0.416831054344  0.244620843827  0.009013386929  1  1  1
0.416823330664  0.244698576602  0.342292456376  1  1  1
0.416859467888  0.244604282656  0.675673730623  1  1  1
0.750184754551  0.244629801148  0.009005951082  1  1  1
0.750192182924  0.244676390409  0.342323803728  1  1  1
0.750179350809  0.244597605106  0.675685688762  1  1  1
0.083466151658  0.244725704339  0.228919378297  1  1  1
0.083007028921  0.244345735700  0.561470669679  1  1  1
0.083000876114  0.244483214680  0.894774160376  1  1  1
0.416326226556  0.244448816974  0.228064530228  1  1  1
0.416333188721  0.244320553696  0.561477660303  1  1  1
0.416321536561  0.244511130053  0.894763869866  1  1  1
0.749663524065  0.244381777341  0.228102280649  1  1  1
0.749665269734  0.244320672152  0.561482669250  1  1  1
0.749665474173  0.244457474288  0.894772011734  1  1  1
0.085145883232  0.247799150823  0.119480322079  1  1  1
0.085256057199  0.248182189524  0.454764473358  1  1  1
0.085236017380  0.248192509602  0.788184230162  1  1  1
0.418421392849  0.248245144983  0.121441537010  1  1  1
0.418563048136  0.248209756099  0.454813733103  1  1  1
0.418590040201  0.248240560780  0.788135830055  1  1  1
0.751914910047  0.248188398911  0.121508138374  1  1  1
0.751915909758  0.248218952918  0.454840429444  1  1  1
0.751913186624  0.248207965969  0.788160307794  1  1  1
0.250036088113  0.244651027680  0.008846987714  1  1  1
0.249721715775  0.244751149404  0.340814236377  1  1  1
0.249834532045  0.244569282570  0.675606521236  1  1  1
0.583172142590  0.244604085349  0.008962793495  1  1  1
0.583157100591  0.244591633833  0.342290800580  1  1  1
0.583173206765  0.244564136985  0.675633764327  1  1  1
0.916520457306  0.244640086192  0.008941753385  1  1  1
0.916519905345  0.244631558640  0.342282201835  1  1  1
0.916508737060  0.244590915089  0.675634509913  1  1  1
0.247935069414  0.251605581008  0.225898995117  1  1  1
0.249596846629  0.244836784440  0.561744486239  1  1  1
0.249616979567  0.245183801133  0.894989815429  1  1  1
0.582935967579  0.244846709949  0.228396169895  1  1  1
0.582935062991  0.244840376082  0.561745713315  1  1  1