ATOMIC_SPECIES
Ga  Ga_mass  Ga_pesudopotential
P  P_mass  P_pesudopotential
H  H_mass  H_pesudopotential
O  O_mass  O_pesudopotential
C  C_mass  C_pesudopotential

NUMERICAL_ORBITAL
Ga_orbital
P_orbital
H_orbital
O_orbital
C_orbital

LATTICE_CONSTANT
1.889727000000

LATTICE_VECTORS
46.817279999960  0.000000000000  0.000000000000
0.000000000000  30.388121999996  0.000000000000
0.000000000000  0.000000000000  49.657229999978

ATOMIC_POSITIONS
Direct

Ga
0
540
0.000628085203  0.016028695129  0.008971570176  1  1  1
0.000628208038  0.016030418329  0.342302434333  1  1  1
0.000628116176  0.016027823026  0.675636743930  1  1  1
0.333959777198  0.016028136496  0.008971446395  1  1  1
0.333959474349  0.016029745265  0.342302449570  1  1  1
0.333959888588  0.016027394735  0.675636805956  1  1  1
0.667294623724  0.016026216871  0.008970961632  1  1  1
0.667294663918  0.016027324183  0.342302326954  1  1  1
0.667294628532  0.016025747042  0.675636905132  1  1  1
0.332124787452  0.015057265193  0.226064283005  1  1  1
0.332125241619  0.015055050515  0.559396292135  1  1  1
0.332125392653  0.015055259124  0.892731265973  1  1  1
0.665460187213  0.015055106913  0.226063880176  1  1  1
0.665460314115  0.015053292216  0.559396266364  1  1  1
0.665460212274  0.015053789651  0.892730919598  1  1  1
0.998793737460  0.015057927152  0.226064385768  1  1  1
0.998793830658  0.015055552973  0.559396283527  1  1  1
0.998793685945  0.015055696996  0.892731381025  1  1  1
0.001177128678  0.016940429900  0.117648048098  1  1  1
0.001177241910  0.016939320451  0.450978463353  1  1  1
0.001177145801  0.016938800467  0.784313541880  1  1  1
0.334508606549  0.016939712515  0.117647862377  1  1  1
0.334508696480  0.016938684081  0.450978420888  1  1  1
0.334509049422  0.016938390054  0.784313464187  1  1  1
0.667843661694  0.016937397467  0.117647285120  1  1  1
0.667843744863  0.016936395098  0.450978250257  1  1  1
0.667843695961  0.016936899670  0.784313261752  1  1  1
0.166348661838  0.015698431704  0.009007368223  1  1  1
0.166348674407  0.015700055010  0.342338285949  1  1  1
0.166348642756  0.015697670848  0.675672597013  1  1  1
0.499681249958  0.015696380147  0.009006991088  1  1  1
0.499681086913  0.015697393696  0.342338368580  1  1  1
0.499681280226  0.015695866408  0.675672843360  1  1  1
0.833016703193  0.015697143790  0.009007146763  1  1  1
0.833016980154  0.015698330989  0.342338355934  1  1  1
0.833016533835  0.015696527870  0.675672781970  1  1  1
0.163718815943  0.012119349030  0.225652070471  1  1  1
0.163718646213  0.012117122563  0.558983970018  1  1  1
0.163718708028  0.012117084542  0.892318953488  1  1  1
0.497051122228  0.012116936155  0.225651529572  1  1  1
0.497051096532  0.012115205706  0.558983890589  1  1  1
0.497051325012  0.012115476721  0.892318526034  1  1  1
0.830387163720  0.012117747051  0.225651726207  1  1  1
0.830386770941  0.012115846887  0.558983944598  1  1  1
0.830386585034  0.012116038424  0.892318695826  1  1  1
0.163285281151  0.980848169981  0.102840319149  1  1  1
0.163285204057  0.980847680857  0.436170850710  1  1  1
0.163285244540  0.980846410988  0.769505869589  1  1  1
0.496617651556  0.980845752026  0.102839853664  1  1  1
0.496617542979  0.980845186937  0.436170996964  1  1  1
0.496617844446  0.980844715919  0.769505842618  1  1  1
0.829953681273  0.980846593752  0.102840054404  1  1  1
0.829953635380  0.980846021506  0.436171019578  1  1  1
0.829953224153  0.980845300755  0.769505912332  1  1  1
0.083556688081  0.015936074382  0.008984459630  1  1  1
0.083556721413  0.015937484579  0.342315336480  1  1  1
0.083556773629  0.015935326377  0.675649598037  1  1  1
0.416888812643  0.015934707015  0.008984185718  1  1  1
0.416888525746  0.015935733992  0.342315398375  1  1  1
0.416888940816  0.015934151686  0.675649767688  1  1  1
0.750224204179  0.015934177671  0.008983994983  1  1  1
0.750224348410  0.015935088794  0.342315327620  1  1  1
0.750224165253  0.015933717028  0.675649797719  1  1  1
0.081432807405  0.018850578178  0.228290908465  1  1  1
0.081432981264  0.018847889967  0.561622740133  1  1  1
0.081432946409  0.018848048879  0.894957907336  1  1  1
0.414764550867  0.018848580174  0.228290522599  1  1  1
0.414764959545  0.018846356458  0.561622689878  1  1  1
0.414765130548  0.018846777703  0.894957600739  1  1  1
0.748100519111  0.018847826395  0.228290409627  1  1  1
0.748100549846  0.018845715501  0.561622713167  1  1  1
0.748100387712  0.018846300294  0.894957503694  1  1  1
0.085173346046  0.015102616080  0.121371020093  1  1  1
0.085173523810  0.015101632871  0.454701382488  1  1  1
0.085173538356  0.015100863094  0.788036492990  1  1  1
0.418505392477  0.015100881791  0.121370419604  1  1  1
0.418505531234  0.015099994750  0.454701241146  1  1  1
0.418505855411  0.015099787097  0.788036268776  1  1  1
0.751841108436  0.015100260169  0.121370278325  1  1  1
0.751841254059  0.015099354889  0.454701214511  1  1  1
0.751840989644  0.015099414140  0.788036254571  1  1  1
0.249872388118  0.015923767353  0.007567774967  1  1  1
0.249872278164  0.015925288369  0.340898628968  1  1  1
0.249872371269  0.015923025646  0.674232927895  1  1  1
0.583205941152  0.015921480689  0.007567265694  1  1  1
0.583205918473  0.015922404872  0.340898614847  1  1  1
0.583205942710  0.015921037027  0.674233132083  1  1  1
0.916540608558  0.015923297308  0.007567716258  1  1  1
0.916540869702  0.015924609326  0.340898661364  1  1  1
0.916540485833  0.015922556138  0.674232991419  1  1  1
0.248045660276  0.015967673026  0.229707911075  1  1  1
0.248045512712  0.015964738345  0.563039796773  1  1  1
0.248045590599  0.015965016777  0.896374924369  1  1  1
0.581379199753  0.015964319817  0.229707251820  1  1  1
0.581378997719  0.015962086899  0.563039698347  1  1  1
0.581379084997  0.015962858789  0.896374409788  1  1  1
0.914714309751  0.015966858604  0.229707681392  1  1  1
0.914713855450  0.015964125111  0.563039723840  1  1  1
0.914713701068  0.015964532964  0.896374806208  1  1  1
0.254101456434  0.018773598266  0.115860101307  1  1  1
0.254101309924  0.018772654138  0.449190414841  1  1  1
0.254101433445  0.018772012107  0.782525607982  1  1  1
0.587435048117  0.018770886817  0.115859256675  1  1  1
0.587434903842  0.018770013522  0.449190162846  1  1  1
0.587434995138  0.018770267824  0.782525326288  1  1  1
0.920769925531  0.018773079998  0.115859866167  1  1  1
0.920769813179  0.018772104352  0.449190319617  1  1  1
0.920769483946  0.018771629144  0.782525525985  1  1  1
0.127274112705  0.064510829227  0.055805777773  1  1  1
0.127274160777  0.064511197899  0.389136038233  1  1  1
0.127274161052  0.064510333150  0.722471153960  1  1  1
0.460606254208  0.064509965365  0.055805634326  1  1  1
0.460606081877  0.064510196003  0.389136503564  1  1  1
0.460606451130  0.064509667519  0.722471490055  1  1  1
0.793942243456  0.064510046927  0.055805539786  1  1  1
0.793942407163  0.064510271322  0.389136331777  1  1  1
0.793941958566  0.064509727381  0.722471396679  1  1  1
0.124953929776  0.064727796165  0.277769582961  1  1  1
0.124954007884  0.064726633445  0.611102978922  1  1  1
0.124954027997  0.064726729657  0.944437977855  1  1  1
0.458285768423  0.064726787794  0.277769856112  1  1  1
0.458286141424  0.064725887613  0.611103456172  1  1  1
0.458286270429  0.064726034213  0.944437929715  1  1  1
0.791622308651  0.064726890984  0.277769877324  1  1  1
0.791622061491  0.064725957812  0.611103491163  1  1  1
0.791621977037  0.064726088164  0.944437932199  1  1  1
0.125449448888  0.063739195926  0.163695366494  1  1  1
0.125449718473  0.063738618933  0.497026062039  1  1  1
0.125449765401  0.063738325526  0.830361224964  1  1  1
0.458781650112  0.063738317322  0.163694973934  1  1  1
0.458781946436  0.063737804085  0.497026153388  1  1  1
0.458782235363  0.063737750836  0.830361051723  1  1  1
0.792117938605  0.063738306214  0.163695003066  1  1  1
0.792118080325  0.063737770764  0.497026164334  1  1  1
0.792117697214  0.063737728805  0.830361079525  1  1  1
0.292224214609  0.064002305138  0.053500880820  1  1  1
0.292224035848  0.064002741187  0.386831059453  1  1  1
0.292224350000  0.064001833813  0.720166138802  1  1  1
0.625558549854  0.064001196692  0.053500575676  1  1  1
0.625558533065  0.064001460628  0.386831341087  1  1  1
0.625558562656  0.064000979613  0.720166396436  1  1  1
0.958892897421  0.064002276043  0.053500879176  1  1  1
0.958893048734  0.064002681052  0.386831066234  1  1  1
0.958892742656  0.064001776251  0.720166148866  1  1  1
0.291924270946  0.064082490680  0.276509724567  1  1  1
0.291924658990  0.064081363352  0.609843488522  1  1  1
0.291924740664  0.064081468931  0.943178287690  1  1  1
0.625259115403  0.064081474424  0.276510231342  1  1  1
0.625259194137  0.064080594665  0.609844239454  1  1  1
0.625259152147  0.064080700664  0.943178307290  1  1  1
0.958593563212  0.064082509526  0.276509770416  1  1  1
0.958593403145  0.064081372544  0.609843510285  1  1  1
0.958593307550  0.064081485398  0.943178344549  1  1  1
0.291812576937  0.064493920034  0.165406474790  1  1  1
0.291812860066  0.064493196256  0.498737213352  1  1  1
0.291813087590  0.064492995480  0.832072411635  1  1  1
0.625147384696  0.064492778352  0.165406225659  1  1  1
0.625147510207  0.064492112207  0.498737506359  1  1  1
0.625147460012  0.064492226760  0.832072340920  1  1  1
0.958481706899  0.064493914902  0.165406404508  1  1  1
0.958481807315  0.064493172337  0.498737175187  1  1  1
0.958481524237  0.064492968910  0.832072412359  1  1  1
0.043175208491  0.064125647548  0.055233984916  1  1  1
0.043175357357  0.064126097280  0.388564158320  1  1  1
0.043175346970  0.064125169704  0.721899209345  1  1  1
0.376506834893  0.064125152101  0.055233881220  1  1  1
0.376506683373  0.064125512632  0.388564356620  1  1  1
0.376507189148  0.064124789972  0.721899351638  1  1  1
0.709842506906  0.064124576128  0.055233689632  1  1  1
0.709842666070  0.064124852396  0.388564457697  1  1  1
0.709842480573  0.064124357915  0.721899461308  1  1  1
0.041304366144  0.064415868725  0.277765883109  1  1  1
0.041304454952  0.064414630020  0.611099468761  1  1  1
0.041304323522  0.064414742115  0.944434458976  1  1  1
0.374635425572  0.064415309662  0.277766190890  1  1  1
0.374635967734  0.064414225868  0.611099857087  1  1  1
0.374636017215  0.064414349157  0.944434512003  1  1  1
0.707971540245  0.064414706170  0.277766327756  1  1  1
0.707971524933  0.064413761210  0.611100192958  1  1  1
0.707971429987  0.064413886748  0.944434409290  1  1  1
0.041405383124  0.064661901160  0.165484383551  1  1  1
0.041405420082  0.064661148247  0.498815095450  1  1  1
0.041405339376  0.064660902097  0.832150307297  1  1  1
0.374736537897  0.064661324144  0.165484148210  1  1  1
0.374736733047  0.064660639779  0.498815139657  1  1  1
0.374737099116  0.064660542204  0.832150178432  1  1  1
0.708072522749  0.064660691087  0.165484137001  1  1  1
0.708072537059  0.064660019460  0.498815402831  1  1  1
0.708072369466  0.064660111124  0.832150222394  1  1  1
0.205836489598  0.064242283628  0.055186345926  1  1  1
0.205836372342  0.064242679164  0.388516534291  1  1  1
0.205836398316  0.064241762524  0.721851588905  1  1  1
0.539169302999  0.064241200859  0.055186100623  1  1  1
0.539169167627  0.064241417031  0.388516929351  1  1  1
0.539169352895  0.064240913480  0.721851901886  1  1  1
0.872504858076  0.064241739099  0.055186337888  1  1  1
0.872504982857  0.064242029557  0.388516846698  1  1  1
0.872504476156  0.064241310293  0.721851815573  1  1  1
0.207844498936  0.064214316955  0.277658343453  1  1  1
0.207844219798  0.064213221632  0.610991962211  1  1  1
0.207844271453  0.064213303496  0.944326858351  1  1  1
0.541177260290  0.064213216218  0.277658841982  1  1  1
0.541177068542  0.064212402400  0.610992701596  1  1  1
0.541177201654  0.064212494579  0.944326866024  1  1  1
0.874513193936  0.064213776199  0.277658468748  1  1  1
0.874512514883  0.064212818383  0.610992205704  1  1  1
0.874512466595  0.064212938534  0.944326839620  1  1  1
0.207966644412  0.066633139989  0.167152189885  1  1  1
0.207966173610  0.066632444297  0.500482863130  1  1  1
0.207966228336  0.066632311312  0.833818091548  1  1  1
0.541299182687  0.066631965338  0.167151694033  1  1  1
0.541298761750  0.066631373296  0.500483011207  1  1  1
0.541299038022  0.066631536179  0.833817877839  1  1  1
0.874635118129  0.066632588038  0.167151944555  1  1  1
0.874634534840  0.066631921974  0.500482923620  1  1  1
0.874634205385  0.066631929521  0.833818020252  1  1  1
0.000000000000  0.130439996734  0.000000000000  0  0  0
0.000000000000  0.130439996734  0.333333333334  0  0  0
0.000000000000  0.130439996734  0.666666666666  0  0  0
0.333333333334  0.130439996734  0.000000000000  0  0  0
0.333333333334  0.130439996734  0.333333333334  0  0  0
0.333333333334  0.130439996734  0.666666666666  0  0  0
0.666666666666  0.130439996734  0.000000000000  0  0  0
0.666666666666  0.130439996734  0.333333333334  0  0  0
0.666666666666  0.130439996734  0.666666666666  0  0  0
0.000000000000  0.130439996734  0.222223341380  0  0  0
0.000000000000  0.130439996734  0.555556674713  0  0  0
0.000000000000  0.130439996734  0.888890008047  0  0  0
0.333333333334  0.130439996734  0.222223341380  0  0  0
0.333333333334  0.130439996734  0.555556674713  0  0  0
0.333333333334  0.130439996734  0.888890008047  0  0  0
0.666666666666  0.130439996734  0.222223341380  0  0  0
0.666666666666  0.130439996734  0.555556674713  0  0  0
0.666666666666  0.130439996734  0.888890008047  0  0  0
0.000000000000  0.130439996734  0.111110001801  0  0  0
0.000000000000  0.130439996734  0.444443335133  0  0  0
0.000000000000  0.130439996734  0.777776668467  0  0  0
0.333333333334  0.130439996734  0.111110001801  0  0  0
0.333333333334  0.130439996734  0.444443335133  0  0  0
0.333333333334  0.130439996734  0.777776668467  0  0  0
0.666666666666  0.130439996734  0.111110001801  0  0  0
0.666666666666  0.130439996734  0.444443335133  0  0  0
0.666666666666  0.130439996734  0.777776668467  0  0  0
0.166666666675  0.130439996734  0.000000000000  0  0  0
0.166666666675  0.130439996734  0.333333333334  0  0  0
0.166666666675  0.130439996734  0.666666666666  0  0  0
0.500000000009  0.130439996734  0.000000000000  0  0  0
0.500000000009  0.130439996734  0.333333333334  0  0  0
0.500000000009  0.130439996734  0.666666666666  0  0  0
0.833333333341  0.130439996734  0.000000000000  0  0  0
0.833333333341  0.130439996734  0.333333333334  0  0  0
0.833333333341  0.130439996734  0.666666666666  0  0  0
0.166666666675  0.130439996734  0.222223341380  0  0  0
0.166666666675  0.130439996734  0.555556674713  0  0  0
0.166666666675  0.130439996734  0.888890008047  0  0  0
0.500000000009  0.130439996734  0.222223341380  0  0  0
0.500000000009  0.130439996734  0.555556674713  0  0  0
0.500000000009  0.130439996734  0.888890008047  0  0  0
0.833333333341  0.130439996734  0.222223341380  0  0  0
0.833333333341  0.130439996734  0.555556674713  0  0  0
0.833333333341  0.130439996734  0.888890008047  0  0  0
0.166666666675  0.130439996734  0.111110001801  0  0  0
0.166666666675  0.130439996734  0.444443335133  0  0  0
0.166666666675  0.130439996734  0.777776668467  0  0  0
0.500000000009  0.130439996734  0.111110001801  0  0  0
0.500000000009  0.130439996734  0.444443335133  0  0  0
0.500000000009  0.130439996734  0.777776668467  0  0  0
0.833333333341  0.130439996734  0.111110001801  0  0  0
0.833333333341  0.130439996734  0.444443335133  0  0  0
0.833333333341  0.130439996734  0.777776668467  0  0  0
0.083333333327  0.130439996734  0.000000000000  0  0  0
0.083333333327  0.130439996734  0.333333333334  0  0  0
0.083333333327  0.130439996734  0.666666666666  0  0  0
0.416666666661  0.130439996734  0.000000000000  0  0  0
0.416666666661  0.130439996734  0.333333333334  0  0  0
0.416666666661  0.130439996734  0.666666666666  0  0  0
0.749999999993  0.130439996734  0.000000000000  0  0  0
0.749999999993  0.130439996734  0.333333333334  0  0  0
0.749999999993  0.130439996734  0.666666666666  0  0  0
0.083333333327  0.130439996734  0.222223341380  0  0  0
0.083333333327  0.130439996734  0.555556674713  0  0  0
0.083333333327  0.130439996734  0.888890008047  0  0  0
0.416666666661  0.130439996734  0.222223341380  0  0  0
0.416666666661  0.130439996734  0.555556674713  0  0  0
0.416666666661  0.130439996734  0.888890008047  0  0  0
0.749999999993  0.130439996734  0.222223341380  0  0  0
0.749999999993  0.130439996734  0.555556674713  0  0  0
0.749999999993  0.130439996734  0.888890008047  0  0  0
0.083333333327  0.130439996734  0.111110001801  0  0  0
0.083333333327  0.130439996734  0.444443335133  0  0  0
0.083333333327  0.130439996734  0.777776668467  0  0  0
0.416666666661  0.130439996734  0.111110001801  0  0  0
0.416666666661  0.130439996734  0.444443335133  0  0  0
0.416666666661  0.130439996734  0.777776668467  0  0  0
0.749999999993  0.130439996734  0.111110001801  0  0  0
0.749999999993  0.130439996734  0.444443335133  0  0  0
0.749999999993  0.130439996734  0.777776668467  0  0  0
0.250000000089  0.130439996734  0.000000000000  0  0  0
0.250000000089  0.130439996734  0.333333333334  0  0  0
0.250000000089  0.130439996734  0.666666666666  0  0  0
0.583333333421  0.130439996734  0.000000000000  0  0  0
0.583333333421  0.130439996734  0.333333333334  0  0  0
0.583333333421  0.130439996734  0.666666666666  0  0  0
0.916666666755  0.130439996734  0.000000000000  0  0  0
0.916666666755  0.130439996734  0.333333333334  0  0  0
0.916666666755  0.130439996734  0.666666666666  0  0  0
0.250000000089  0.130439996734  0.222223341380  0  0  0
0.250000000089  0.130439996734  0.555556674713  0  0  0
0.250000000089  0.130439996734  0.888890008047  0  0  0
0.583333333421  0.130439996734  0.222223341380  0  0  0
0.583333333421  0.130439996734  0.555556674713  0  0  0
0.583333333421  0.130439996734  0.888890008047  0  0  0
0.916666666755  0.130439996734  0.222223341380  0  0  0
0.916666666755  0.130439996734  0.555556674713  0  0  0
0.916666666755  0.130439996734  0.888890008047  0  0  0
0.250000000089  0.130439996734  0.111110001801  0  0  0
0.250000000089  0.130439996734  0.444443335133  0  0  0
0.250000000089  0.130439996734  0.777776668467  0  0  0
0.583333333421  0.130439996734  0.111110001801  0  0  0
0.583333333421  0.130439996734  0.444443335133  0  0  0
0.583333333421  0.130439996734  0.777776668467  0  0  0
0.916666666755  0.130439996734  0.111110001801  0  0  0
0.916666666755  0.130439996734  0.444443335133  0  0  0
0.916666666755  0.130439996734  0.777776668467  0  0  0
0.126081925691  0.195904106645  0.056807015313  1  1  1
0.126081959473  0.195903567511  0.390137395645  1  1  1
0.126081971095  0.195904759029  0.723472415658  1  1  1
0.459414129335  0.195905393480  0.056806855393  1  1  1
0.459413977078  0.195905085255  0.390137770962  1  1  1
0.459414332487  0.195905808860  0.723472683505  1  1  1
0.792749939579  0.195905293921  0.056806786885  1  1  1
0.792750072842  0.195904981303  0.390137634290  1  1  1
0.792749669890  0.195905721700  0.723472611416  1  1  1
0.125091794945  0.195916000761  0.277739894182  1  1  1
0.125091835758  0.195917643922  0.611073236368  1  1  1
0.125091845641  0.195917546698  0.944408170086  1  1  1
0.458423810995  0.195917741965  0.277740037595  1  1  1
0.458424110018  0.195918991639  0.611073587657  1  1  1
0.458424191922  0.195918725249  0.944408054924  1  1  1
0.791759903245  0.195917680659  0.277739994552  1  1  1
0.791759669859  0.195918948598  0.611073571204  1  1  1
0.791759628932  0.195918665961  0.944408034241  1  1  1
0.125452685284  0.198580951273  0.163544896710  1  1  1
0.125452927421  0.198581788513  0.496875714652  1  1  1
0.125452937345  0.198582211735  0.830210814615  1  1  1
0.458784926211  0.198582561585  0.163544583305  1  1  1
0.458785188625  0.198583278433  0.496875844029  1  1  1
0.458785438999  0.198583271755  0.830210669992  1  1  1
0.792120945435  0.198582588675  0.163544627876  1  1  1
0.792121073277  0.198583320907  0.496875868830  1  1  1
0.792120716261  0.198583274366  0.830210700709  1  1  1
0.292165809565  0.196313956384  0.054605357788  1  1  1
0.292165633211  0.196313346550  0.387935677704  1  1  1
0.292165954265  0.196314542267  0.721270699326  1  1  1
0.625500108640  0.196315606329  0.054605004429  1  1  1
0.625500094953  0.196315289358  0.387935846207  1  1  1
0.625500138773  0.196315900566  0.721270876876  1  1  1
0.958834398684  0.196313924218  0.054605342552  1  1  1
0.958834524767  0.196313342481  0.387935664416  1  1  1
0.958834260249  0.196314541063  0.721270693877  1  1  1
0.291905612715  0.196357755831  0.277449797751  1  1  1
0.291905967406  0.196359492805  0.610783494332  1  1  1
0.291906017135  0.196359325872  0.944118181453  1  1  1
0.625240316840  0.196359985090  0.277449948608  1  1  1
0.625240384069  0.196361248266  0.610783942275  1  1  1
0.625240346199  0.196360856931  0.944118004134  1  1  1
0.958574689284  0.196357719940  0.277449833772  1  1  1
0.958574534577  0.196359463199  0.610783514258  1  1  1
0.958574452280  0.196359276982  0.944118245215  1  1  1
0.292054698901  0.196131993345  0.165381609286  1  1  1
0.292054917582  0.196132954273  0.498712495075  1  1  1
0.292055114225  0.196133261425  0.832047631075  1  1  1
0.625389279911  0.196134051952  0.165381486370  1  1  1
0.625389375697  0.196134854553  0.498712853319  1  1  1
0.625389356377  0.196134645029  0.832047590399  1  1  1
0.958723625070  0.196131920905  0.165381564199  1  1  1
0.958723681258  0.196132883546  0.498712489004  1  1  1
0.958723425362  0.196133200346  0.832047655227  1  1  1
0.043116282290  0.196471588626  0.055226226711  1  1  1
0.043116458987  0.196470946241  0.388556525730  1  1  1
0.043116423929  0.196472215384  0.721891469477  1  1  1
0.376447966422  0.196472336222  0.055226124044  1  1  1
0.376447857386  0.196471826131  0.388556702340  1  1  1
0.376448313258  0.196472815022  0.721891596406  1  1  1
0.709783504341  0.196473277660  0.055225900062  1  1  1
0.709783664191  0.196472932931  0.388556711766  1  1  1
0.709783463887  0.196473586233  0.721891642242  1  1  1
0.041405614024  0.196317850482  0.277616758487  1  1  1
0.041405695006  0.196319633101  0.610950254034  1  1  1
0.041405576453  0.196319498713  0.944285147066  1  1  1
0.374736836682  0.196318860608  0.277616927031  1  1  1
0.374737340255  0.196320408279  0.610950519219  1  1  1
0.374737365404  0.196320192513  0.944285115285  1  1  1
0.708072696552  0.196320145966  0.277616901496  1  1  1
0.708072686281  0.196321426652  0.610950712567  1  1  1
0.708072609554  0.196321073924  0.944284936029  1  1  1
0.041502801256  0.196078450791  0.165617959961  1  1  1
0.041502853617  0.196079404633  0.498948814717  1  1  1
0.041502788008  0.196079825144  0.832283958475  1  1  1
0.374834062231  0.196079393232  0.165617761210  1  1  1
0.374834258411  0.196080261966  0.498948868650  1  1  1
0.374834607202  0.196080449258  0.832283837739  1  1  1
0.708169910656  0.196080571026  0.165617808590  1  1  1
0.708169933275  0.196081365732  0.498949156165  1  1  1
0.708169766690  0.196081238712  0.832283885839  1  1  1
0.205731787763  0.196265202973  0.055266747304  1  1  1
0.205731666827  0.196264619969  0.388597062176  1  1  1
0.205731684944  0.196265851597  0.721932010771  1  1  1
0.539064651141  0.196266829271  0.055266469925  1  1  1
0.539064518138  0.196266537911  0.388597347577  1  1  1
0.539064683908  0.196267189753  0.721932242607  1  1  1
0.872400046409  0.196265911412  0.055266706843  1  1  1
0.872400138471  0.196265477700  0.388597305748  1  1  1
0.872399664932  0.196266441746  0.721932184837  1  1  1
0.208029012284  0.196499430319  0.277677095948  1  1  1
0.208028863500  0.196501140068  0.611010575623  1  1  1
0.208028924072  0.196501025501  0.944345428121  1  1  1
0.541362006168  0.196501768546  0.277677241772  1  1  1
0.541361900861  0.196502962731  0.611011000784  1  1  1
0.541361990395  0.196502613557  0.944345255507  1  1  1
0.874697591798  0.196500335909  0.277677166095  1  1  1
0.874697056501  0.196501830353  0.611010762670  1  1  1
0.874697043148  0.196501605787  0.944345390322  1  1  1
0.207925886302  0.195933906192  0.165827437861  1  1  1
0.207925468602  0.195934839192  0.499158204981  1  1  1
0.207925542366  0.195935193779  0.832493384208  1  1  1
0.541258605013  0.195935956464  0.165827129968  1  1  1
0.541258217545  0.195936706196  0.499158431524  1  1  1
0.541258464270  0.195936568765  0.832493243072  1  1  1
0.874594242364  0.195934682632  0.165827264639  1  1  1
0.874593720218  0.195935546091  0.499158300240  1  1  1
0.874593434365  0.195935698349  0.832493343250  1  1  1
0.000563972744  0.244535579584  0.009150884739  1  1  1
0.000564105953  0.244533822985  0.342481886380  1  1  1
0.000563999256  0.244536461720  0.675816074748  1  1  1
0.333895766281  0.244536173966  0.009150765932  1  1  1
0.333895517958  0.244534535696  0.342481880200  1  1  1
0.333895881966  0.244536927344  0.675816115519  1  1  1
0.667230476685  0.244538136175  0.009150275556  1  1  1
0.667230523241  0.244536979850  0.342481639170  1  1  1
0.667230477447  0.244538593861  0.675816094155  1  1  1
0.332575443532  0.247701656478  0.225921629650  1  1  1
0.332575823217  0.247704073916  0.559253843997  1  1  1
0.332575933010  0.247703901760  0.892588725074  1  1  1
0.665910503965  0.247704200338  0.225921393129  1  1  1
0.665910607758  0.247706174009  0.559253922738  1  1  1
0.665910534724  0.247705600862  0.892588465816  1  1  1
0.999244146239  0.247700876964  0.225921730888  1  1  1
0.999244201790  0.247703469438  0.559253847533  1  1  1
0.999244079788  0.247703380048  0.892588844250  1  1  1
0.001220194829  0.244352179823  0.117718974392  1  1  1
0.001220310214  0.244353151329  0.451049588175  1  1  1
0.001220240464  0.244353939406  0.784384588197  1  1  1
0.334551794932  0.244352898823  0.117718833122  1  1  1
0.334551884237  0.244353821346  0.451049577821  1  1  1
0.334552224175  0.244354389529  0.784384537427  1  1  1
0.667886686864  0.244355240755  0.117718411233  1  1  1
0.667886770960  0.244356140596  0.451049488693  1  1  1
0.667886742779  0.244355977464  0.784384388785  1  1  1
0.166039500182  0.244733408362  0.009148518142  1  1  1
0.166039499163  0.244731681013  0.342479571146  1  1  1
0.166039474494  0.244734181768  0.675813784200  1  1  1
0.499372201665  0.244735595968  0.009148111416  1  1  1
0.499372080908  0.244734499947  0.342479510372  1  1  1
0.499372241277  0.244736107856  0.675813896335  1  1  1
0.832707356386  0.244734801962  0.009148277263  1  1  1
0.832707551795  0.244733535567  0.342479547882  1  1  1
0.832707184892  0.244735426810  0.675813880462  1  1  1
0.165408935391  0.248509810801  0.225591428916  1  1  1
0.165408830705  0.248512205397  0.558923509108  1  1  1
0.165408875150  0.248512286788  0.892258413584  1  1  1
0.498741578548  0.248512613331  0.225591031062  1  1  1
0.498741556788  0.248514458144  0.558923524101  1  1  1
0.498741690184  0.248514147750  0.892258058825  1  1  1
0.832076958743  0.248511628925  0.225591160512  1  1  1
0.832076674004  0.248513665401  0.558923532006  1  1  1
0.832076555285  0.248513463114  0.892258200212  1  1  1
0.163183206362  0.279809521794  0.101039101876  1  1  1
0.163183132941  0.279809996533  0.434369821937  1  1  1
0.163183155004  0.279811309175  0.767704734447  1  1  1
0.496515693696  0.279812028746  0.101038750851  1  1  1
0.496515585405  0.279812594726  0.434369979869  1  1  1
0.496515846646  0.279813092216  0.767704723058  1  1  1
0.829851392829  0.279811165178  0.101038910412  1  1  1
0.829851339853  0.279811735758  0.434369991624  1  1  1
0.829850965296  0.279812487693  0.767704777582  1  1  1
0.083505690888  0.244577889365  0.009004815821  1  1  1
0.083505742947  0.244576370742  0.342335833406  1  1  1
0.083505771037  0.244578682286  0.675670013633  1  1  1
0.416837926232  0.244579385683  0.009004529745  1  1  1
0.416837711295  0.244578285789  0.342335820767  1  1  1
0.416838056625  0.244579978080  0.675670111167  1  1  1
0.750173080238  0.244579965827  0.009004332916  1  1  1
0.750173200776  0.244579004646  0.342335692035  1  1  1
0.750173026440  0.244580457425  0.675670090940  1  1  1
0.082977451015  0.244205983640  0.228118595759  1  1  1
0.082977582598  0.244208599731  0.561450684363  1  1  1
0.082977553829  0.244208407403  0.894785785338  1  1  1
0.416309382412  0.244208199805  0.228118323680  1  1  1
0.416309715769  0.244210338046  0.561450694631  1  1  1
0.416309850311  0.244209833387  0.894785537411  1  1  1
0.749644943546  0.244208998232  0.228118284048  1  1  1
0.749644958118  0.244211031015  0.561450760152  1  1  1
0.749644846806  0.244210344740  0.894785472587  1  1  1
0.085143903020  0.248133062653  0.121471673538  1  1  1
0.085144072393  0.248134016471  0.454802248398  1  1  1
0.085144077656  0.248134846990  0.788137296243  1  1  1
0.418476037387  0.248134918541  0.121471189558  1  1  1
0.418476169831  0.248135797101  0.454802166081  1  1  1
0.418476461162  0.248136072472  0.788137111300  1  1  1
0.751811483106  0.248135592037  0.121471143509  1  1  1
0.751811616131  0.248136484277  0.454802206587  1  1  1
0.751811378933  0.248136508772  0.788137131944  1  1  1
0.249830017127  0.244548037711  0.008939433632  1  1  1
0.249829898776  0.244546439847  0.342270441687  1  1  1
0.249830006202  0.244548828285  0.675604668633  1  1  1
0.583163593351  0.244550524687  0.008938858601  1  1  1
0.583163568817  0.244549579613  0.342270234306  1  1  1
0.583163603026  0.244550994270  0.675604710037  1  1  1
0.916498112397  0.244548538363  0.008939351472  1  1  1
0.916498308161  0.244547166392  0.342270422591  1  1  1
0.916497985741  0.244549329958  0.675604689818  1  1  1
0.249597167135  0.244753017227  0.228411453607  1  1  1
0.249597111978  0.244755694569  0.561743583215  1  1  1
0.249597179094  0.244755452949  0.895078669643  1  1  1
0.582930853822  0.244756388007  0.228411073842  1  1  1
0.582930717169  0.244758424090  0.561743647063  1  1  1