%BLOCK LATTICE_CART
   2.805799707700000   0.000000000000000   0.000000000000000
   1.402899853850000   2.429893824799152   0.000000000000000
   0.000000000000003   0.000000000000002  46.758240655557778
%END BLOCK LATTICE_CART
%BLOCK POSITIONS_FRAC
    Al   0.000000000000000   0.000000000000000   0.999928351003611
    Al   0.333333333300000   0.333333333300000   0.049827633466479
    Al   0.666666666700000   0.666666666700000   0.099723759945196
    Al   0.000000000000000   0.000000000000000   0.149616884559841
    Al   0.333333333300000   0.333333333300000   0.199552551870746
    Al   0.900000000000000   0.900000000000000   0.250439871254180
    Al   0.233333333300000   0.233333333300000   0.300366604423629
    Al   0.566666666700000   0.566666666700000   0.350239735581877
    Al   0.900000000000000   0.900000000000000   0.400106644613480
    Al   0.233333333300000   0.233333333300000   0.450000531599958
    Al   0.900000000000000   0.900000000000000   0.499894417797440
    Al   0.566666666700000   0.566666666700000   0.549761233032295
    Al   0.233333333300000   0.233333333300000   0.599634076722258
    Al   0.900000000000000   0.900000000000000   0.649560405946913
    Al   0.333333333300000   0.333333333300000   0.700447366186002
    Al   0.000000000000000   0.000000000000000   0.750382727573314
    Al   0.666666666700000   0.666666666700000   0.800275648024158
    Al   0.333333333300000   0.333333333300000   0.850171570083333
    Al   0.000000000000000   0.000000000000000   0.900070632194921
    Al   0.666666666700000   0.666666666700000   0.949999438441962
%END BLOCK POSITIONS_FRAC
%BLOCK SPECIES_POT
    Al al.lda.recpot                                                                          
%END BLOCK SPECIES_POT
%BLOCK ION_OPTIMIZATION
           0           0           1
           0           0           1
           0           0           1
           0           0           1
           0           0           1
           0           0           1
           0           0           1
           0           0           1
           0           0           1
           0           0           1
           0           0           1
           0           0           1
           0           0           1
           0           0           1
           0           0           1
           0           0           1
           0           0           1
           0           0           1
           0           0           1
           0           0           1
%END BLOCK ION_OPTIMIZATION
