ATOMIC_SPECIES
N 14 /home/mhchen_pkuhpc/mhchen_cls/lustre2/5_liurenxi/03a01_abacus-lcao-scan/pp/SG15_ONCV_v1.0_upf/N_ONCV_PBE-1.0.upf
C 12 /home/mhchen_pkuhpc/mhchen_cls/lustre2/5_liurenxi/03a01_abacus-lcao-scan/pp/SG15_ONCV_v1.0_upf/C_ONCV_PBE-1.0.upf
H 1 /home/mhchen_pkuhpc/mhchen_cls/lustre2/5_liurenxi/03a01_abacus-lcao-scan/pp/SG15_ONCV_v1.0_upf/H_ONCV_PBE-1.0.upf
O 16 /home/mhchen_pkuhpc/mhchen_cls/lustre2/5_liurenxi/03a01_abacus-lcao-scan/pp/SG15_ONCV_v1.0_upf/O_ONCV_PBE-1.0.upf
N_empty 14 /home/mhchen_pkuhpc/mhchen_cls/lustre2/5_liurenxi/03a01_abacus-lcao-scan/pp/SG15_ONCV_v1.0_upf/N_ONCV_PBE-1.0.upf
C_empty 12 /home/mhchen_pkuhpc/mhchen_cls/lustre2/5_liurenxi/03a01_abacus-lcao-scan/pp/SG15_ONCV_v1.0_upf/C_ONCV_PBE-1.0.upf
H_empty 1 /home/mhchen_pkuhpc/mhchen_cls/lustre2/5_liurenxi/03a01_abacus-lcao-scan/pp/SG15_ONCV_v1.0_upf/H_ONCV_PBE-1.0.upf
O_empty 16 /home/mhchen_pkuhpc/mhchen_cls/lustre2/5_liurenxi/03a01_abacus-lcao-scan/pp/SG15_ONCV_v1.0_upf/O_ONCV_PBE-1.0.upf

LATTICE_CONSTANT
1.8897161646321

LATTICE_VECTORS
20 0 0
0 20 0
0 0 20

NUMERICAL_ORBITAL
/home/mhchen_pkuhpc/mhchen_cls/lustre2/5_liurenxi/03a01_abacus-lcao-scan/orb/Orb_DZP_E100_Full/N/N_gga_10au_100Ry_2s2p1d.orb
/home/mhchen_pkuhpc/mhchen_cls/lustre2/5_liurenxi/03a01_abacus-lcao-scan/orb/Orb_DZP_E100_Full/C/C_gga_10au_100Ry_2s2p1d.orb
/home/mhchen_pkuhpc/mhchen_cls/lustre2/5_liurenxi/03a01_abacus-lcao-scan/orb/Orb_DZP_E100_Full/H/H_gga_10au_100Ry_2s1p.orb
/home/mhchen_pkuhpc/mhchen_cls/lustre2/5_liurenxi/03a01_abacus-lcao-scan/orb/Orb_DZP_E100_Full/O/O_gga_10au_100Ry_2s2p1d.orb
/home/mhchen_pkuhpc/mhchen_cls/lustre2/5_liurenxi/03a01_abacus-lcao-scan/orb/Orb_DZP_E100_Full/N/N_gga_10au_100Ry_2s2p1d.orb
/home/mhchen_pkuhpc/mhchen_cls/lustre2/5_liurenxi/03a01_abacus-lcao-scan/orb/Orb_DZP_E100_Full/C/C_gga_10au_100Ry_2s2p1d.orb
/home/mhchen_pkuhpc/mhchen_cls/lustre2/5_liurenxi/03a01_abacus-lcao-scan/orb/Orb_DZP_E100_Full/H/H_gga_10au_100Ry_2s1p.orb
/home/mhchen_pkuhpc/mhchen_cls/lustre2/5_liurenxi/03a01_abacus-lcao-scan/orb/Orb_DZP_E100_Full/O/O_gga_10au_100Ry_2s2p1d.orb

ATOMIC_POSITIONS
Cartesian    # Cartesian(Unit is LATTICE_CONSTANT)
N
0.0
2
2.011359 -1.213207 -0.098067 m 0 0 0 
1.376888 0.839745 0.734636 m 0 0 0 
C
0.0
4
2.025708 -0.697180 -1.364403 m 0 0 0 
1.714523 0.591965 -1.612489 m 0 0 0 
1.308960 1.457534 -0.520589 m 0 0 0 
1.645991 -0.485211 1.018727 m 0 0 0 
H
0.0
4
2.297521 -1.391059 -2.145646 m 0 0 0 
1.727287 0.990847 -2.612005 m 0 0 0 
1.051804 1.386223 1.523371 m 0 0 0 
2.129463 -2.201505 0.056813 m 0 0 0 
O
0.0
2
0.920593 2.611086 -0.626046 m 0 0 0 
1.561109 -0.971806 2.129806 m 0 0 0 
N_empty
0.0
2
-2.011359 1.213207 -0.098067 m 0 0 0 
-1.376888 -0.839745 0.734636 m 0 0 0 
C_empty
0.0
4
-2.025708 0.697180 -1.364403 m 0 0 0 
-1.714523 -0.591965 -1.612489 m 0 0 0 
-1.308960 -1.457534 -0.520589 m 0 0 0 
-1.645991 0.485211 1.018727 m 0 0 0 
H_empty
0.0
4
-2.297521 1.391059 -2.145646 m 0 0 0 
-1.727287 -0.990847 -2.612005 m 0 0 0 
-1.051804 -1.386223 1.523371 m 0 0 0 
-2.129463 2.201505 0.056813 m 0 0 0 
O_empty
0.0
2
-0.920593 -2.611086 -0.626046 m 0 0 0 
-1.561109 0.971806 2.129806 m 0 0 0 
