%BLOCK LATTICE_CART
   0.001457805348638   2.105067590060400   2.105071106114373
   2.105068696620101   0.001463181345369   2.105066837925767
   2.105068091893354   2.105062717138900   0.001459619987210
%END BLOCK LATTICE_CART
%BLOCK POSITIONS_FRAC
    Li   0.000000000000000   0.000000000000000   0.000000000000000
%END BLOCK POSITIONS_FRAC
%BLOCK SPECIES_POT
    Li li.lda.recpot                                                                          
%END BLOCK SPECIES_POT
