%BLOCK LATTICE_CART
   0.001354942390540   2.113805147649179   2.113809032628390
   2.113806503338946   0.001360823289407   2.113804510200148
   2.113805838042571   2.113799959917408   0.001356895499672
%END BLOCK LATTICE_CART
%BLOCK POSITIONS_FRAC
    Li   0.000000000000000   0.000000000000000   0.000000000000000
%END BLOCK POSITIONS_FRAC
%BLOCK SPECIES_POT
    Li li.lda.recpot                                                                          
%END BLOCK SPECIES_POT
