%BLOCK LATTICE_CART
   2.807406101100000   0.000000000000000   0.000000000000000
   1.403703050550000   2.431285002292024   0.000000000000000
   0.000000000000003   0.000000000000002  46.057340377818605
%END BLOCK LATTICE_CART
%BLOCK POSITIONS_FRAC
    Al   0.000000000000000   0.000000000000000   0.000139446186768
    Al   0.333333333300000   0.333333333300000   0.049803600303634
    Al   0.666666666700000   0.666666666700000   0.099503383192656
    Al   0.000000000000000   0.000000000000000   0.149313653644029
    Al   0.333333333300000   0.333333333300000   0.199152113100661
    Al   0.933333333300000   0.933333333300000   0.250545101368406
    Al   0.266666666700000   0.266666666700000   0.300367025219072
    Al   0.600000000000000   0.600000000000000   0.350238241386938
    Al   0.933333333300000   0.933333333300000   0.399857743545823
    Al   0.266666666700000   0.266666666700000   0.450000952054374
    Al   0.933333333300000   0.933333333300000   0.500144087031104
    Al   0.600000000000000   0.600000000000000   0.549763365475830
    Al   0.266666666700000   0.266666666700000   0.599634090092792
    Al   0.933333333300000   0.933333333300000   0.649455394689970
    Al   0.333333333300000   0.333333333300000   0.700847685934483
    Al   0.000000000000000   0.000000000000000   0.750685556273744
    Al   0.666666666700000   0.666666666700000   0.800495359446719
    Al   0.333333333300000   0.333333333300000   0.850194753834350
    Al   0.000000000000000   0.000000000000000   0.899858584646737
    Al   0.666666666700000   0.666666666700000   0.949998943849796
%END BLOCK POSITIONS_FRAC
%BLOCK SPECIES_POT
    Al al.lda.recpot                                                                          
%END BLOCK SPECIES_POT
%BLOCK ION_OPTIMIZATION
           0           0           1
           0           0           1
           0           0           1
           0           0           1
           0           0           1
           0           0           1
           0           0           1
           0           0           1
           0           0           1
           0           0           1
           0           0           1
           0           0           1
           0           0           1
           0           0           1
           0           0           1
           0           0           1
           0           0           1
           0           0           1
           0           0           1
           0           0           1
%END BLOCK ION_OPTIMIZATION
