ATOMIC_SPECIES
Li 6.941 li.gga.psp.1 blps
Mg 24.305 mg.gga.psp blps

LATTICE_CONSTANT
1.8897259885789233  // add lattice constant

LATTICE_VECTORS
3.169855560000    0.000000000000    0.000000000000    
0.000000000000    5.049861860000    0.000000000000    
0.000000000000    0.000000000000    5.409728980000    

ATOMIC_POSITIONS
Direct

Li
0.0
1
    0.500000000000    0.000000000000    0.167794690000 1 1 1
Mg
0.0
3
    0.000000000000    0.000000000000    0.668359750000 1 1 1
    0.000000000000    0.500000000000    0.329603760000 1 1 1
    0.500000000000    0.500000000000    0.834240810000 1 1 1
