%BLOCK LATTICE_CART
3.157899874052    0.000000000000    0.000000000000    
0.000000000000    3.157899874052    0.000000000000    
0.000000000000    0.000000000000    3.157899874052    
%END BLOCK LATTICE_CART
%BLOCK POSITIONS_FRAC
Mg    0.000000000000    0.000000000000    0.000000000000
%END BLOCK POSITIONS_FRAC
%BLOCK SPECIES_POT
Mg mg.gga.recpot
%END BLOCK SPECIES_POT
