%BLOCK LATTICE_CART
2.565463805878    0.000000000000    0.000000000000    
-1.282731902939    2.221756828380    0.000000000000    
0.000000000000    0.000000000000    4.086032902287    
%END BLOCK LATTICE_CART
%BLOCK POSITIONS_FRAC
Si    0.000000000000    0.000000000000    0.000000000000
Si    0.666666666667    0.333333333333    0.500000000000
%END BLOCK POSITIONS_FRAC
%BLOCK SPECIES_POT
Si si.gga.recpot
%END BLOCK SPECIES_POT
