%BLOCK LATTICE_CART
5.385454223600    0.000000000000    0.000000000000    
0.000000000000    5.385454223600    0.000000000000    
0.000000000000    0.000000000000    5.385454223600    
%END BLOCK LATTICE_CART
%BLOCK POSITIONS_FRAC
Si    0.000000000000    0.000000000000    0.000000000000
Si    0.500000000000    0.500000000000    0.000000000000
Si    0.500000000000    0.000000000000    0.500000000000
Si    0.000000000000    0.500000000000    0.500000000000
Si    0.250000000000    0.250000000000    0.250000000000
Si    0.750000000000    0.750000000000    0.250000000000
Si    0.750000000000    0.250000000000    0.750000000000
Si    0.250000000000    0.750000000000    0.750000000000
%END BLOCK POSITIONS_FRAC
%BLOCK SPECIES_POT
Si si.lda.recpot
%END BLOCK SPECIES_POT
