%BLOCK LATTICE_CART
3.207881748921    0.000000000000    0.000000000000    
-1.603940874460    2.778107086902    0.000000000000    
0.000000000000    0.000000000000    5.246238954558    
%END BLOCK LATTICE_CART
%BLOCK POSITIONS_FRAC
Mg    0.000000000000    0.000000000000    0.000000000000
Mg    0.666666666667    0.333333333333    0.500000000000
%END BLOCK POSITIONS_FRAC
%BLOCK SPECIES_POT
Mg mg.gga.recpot
%END BLOCK SPECIES_POT
