%BLOCK LATTICE_CART
2.808534645413    0.000000000000    0.000000000000    
-1.404267322706    2.432262350336    0.000000000000    
0.000000000000    0.000000000000    4.608590644019    
%END BLOCK LATTICE_CART
%BLOCK POSITIONS_FRAC
al    0.000000000000    0.000000000000    0.000000000000
al    0.666666666667    0.333333333333    0.500000000000
%END BLOCK POSITIONS_FRAC
%BLOCK SPECIES_POT
Al al_HC.lda.recpot
%END BLOCK SPECIES_POT
