%BLOCK LATTICE_CART
   0.001549744427974   2.103370518094736   2.103374106173142
   2.103371700093703   0.001555189037544   2.103369844994893
   2.103371075674075   2.103365632490484   0.001551553749470
%END BLOCK LATTICE_CART
%BLOCK POSITIONS_FRAC
    Li   0.000000000000000   0.000000000000000   0.000000000000000
%END BLOCK POSITIONS_FRAC
%BLOCK SPECIES_POT
    Li li.lda.recpot                                                                          
%END BLOCK SPECIES_POT
