%BLOCK LATTICE_CART
1.545751010091    -2.677319285329    0.000000000000    
1.545751010091    2.677319285329    0.000000000000    
0.000000000000    0.000000000000    15.243156295759    
%END BLOCK LATTICE_CART
%BLOCK POSITIONS_FRAC
Li    0.000000000000    0.000000000000    0.000000000000
Li    0.666666666667    0.333333333333    0.333333333333
Li    0.333333333333    0.666666666667    0.666666666667
Mg    0.333333333333    0.666666666667    0.166666666667
Mg    1.000000000000    1.000000000000    0.500000000000
Mg    0.666666666667    0.333333333333    0.833333333333
%END BLOCK POSITIONS_FRAC
%BLOCK SPECIES_POT
Li li.gga.recpot
Mg mg.gga.recpot
%END BLOCK SPECIES_POT
