INPUT_PARAMETERS
#Parameters (1.General)
suffix			oftest
calculation     scf
esolver_type    ofdft
ntype			1
symmetry		1
pseudo_dir      /home/dell/2_software/g_pPROFESS/BLPSLibrary-master/GGA/real
pseudo_rcut     16

#Parameters (2.Iteration)
ecutwfc			75
scf_nmax        100
dft_functional  XC_GGA_X_PBE+XC_GGA_C_PBE


#OFDFT
#of_kinetic     tf
#of_kinetic     vw
of_kinetic      ml
of_method       tn
of_conv         energy
of_tole         2e-6n
of_full_pw      1
of_full_pw_dim  0
of_ml_feg       3

of_ml_chi_p     0.2
of_ml_chi_q     0.1
of_ml_chi_pnl   0.2
of_ml_chi_qnl   0.1

#Parameters (3.Basis)
basis_type		pw
of_ml_tanhxi    1
of_ml_tanhxi_nl    1
of_ml_tanhp    1
of_ml_tanhp_nl    1
