ATOMIC_SPECIES
Al 13 al.lda.lps blps

LATTICE_CONSTANT
7.530668151541728  // add lattice constant

LATTICE_VECTORS
0.707106781187    0.000000000000    0.000000000000    
0.000000000000    0.707106781187    0.000000000000    
0.000000000000    0.000000000000    6.000000000000    

ATOMIC_POSITIONS
Direct

Al
0.0
7
    0.000000000000    0.000000000000    0.000000000000 1 1 1
    0.500000000000    0.500000000000    0.083333333333 1 1 1
    0.000000000000    0.000000000000    0.166666666667 1 1 1
    0.500000000000    0.500000000000    0.250000000000 1 1 1
    0.000000000000    0.000000000000    0.333333333333 1 1 1
    0.500000000000    0.500000000000    0.416666666667 1 1 1
    0.000000000000    0.000000000000    0.500000000000 1 1 1
