%BLOCK LATTICE_CART
6.318540255101    0.000000000000    0.000000000000    
0.000000000000    10.886669935938    0.000000000000    
0.000000000000    0.000000000000    10.335206420000    
%END BLOCK LATTICE_CART
%BLOCK POSITIONS_FRAC
Li    0.000000000000    0.667312400000    0.500000000000
Li    0.500000000000    0.167312400000    0.500000000000
Mg    0.500000000000    0.666652950000    0.000000000000
Mg    0.000000000000    0.666237790000    0.000000000000
Mg    0.247620155000    0.915711765000    0.500000000000
Mg    0.250094080000    0.916872580000    0.000000000000
Mg    0.252379845000    0.415711765000    0.500000000000
Mg    0.249905920000    0.416872580000    0.000000000000
Mg    0.248027585000    0.084868295000    0.255015710000
Mg    0.248027585000    0.084868295000    0.744984290000
Mg    0.251972415000    0.584868295000    0.255015710000
Mg    0.251972415000    0.584868295000    0.744984290000
Mg    0.500000000000    0.831760930000    0.253352540000
Mg    0.500000000000    0.831760930000    0.746647460000
Mg    0.000000000000    0.833022985000    0.250291390000
Mg    0.000000000000    0.833022985000    0.749708610000
Mg    0.000000000000    0.166652950000    0.000000000000
Mg    0.500000000000    0.166237790000    0.000000000000
Mg    0.747620155000    0.415711765000    0.500000000000
Mg    0.750094080000    0.416872580000    0.000000000000
Mg    0.752379845000    0.915711765000    0.500000000000
Mg    0.749905920000    0.916872580000    0.000000000000
Mg    0.748027585000    0.584868295000    0.255015710000
Mg    0.748027585000    0.584868295000    0.744984290000
Mg    0.751972415000    0.084868295000    0.255015710000
Mg    0.751972415000    0.084868295000    0.744984290000
Mg    0.000000000000    0.331760930000    0.253352540000
Mg    0.000000000000    0.331760930000    0.746647460000
Mg    0.500000000000    0.333022985000    0.250291390000
Mg    0.500000000000    0.333022985000    0.749708610000
Al    0.500000000000    0.665579245000    0.500000000000
Al    0.000000000000    0.165579245000    0.500000000000
%END BLOCK POSITIONS_FRAC
%BLOCK SPECIES_POT
Li li.gga.recpot
Mg mg.gga.recpot
Al al.gga.recpot
%END BLOCK SPECIES_POT
