ATOMIC_SPECIES
Al 27 al.lda.lps

LATTICE_CONSTANT
7.50241114482

LATTICE_VECTORS
0.707106781187 0 0 #latvec1
0.353553390593 0.612372435696 0 #latvec2
0 0 11.5470053838 #latvec3

ATOMIC_POSITIONS
Direct

Al #label
0 #magnetism
20 #number of atoms
0  0  0.999871347878  m  0  0  1
0.333333333332  0.333333333332  0.0496174038426  m  0  0  1
0.666666666668  0.666666666668  0.0996938350381  m  0  0  1
0  0  0.149734891343  m  0  0  1
0.333333333332  0.333333333332  0.199844253041  m  0  0  1
0.733333333334  0.733333333334  0.250531501022  m  0  0  1
0.0666666666675  0.0666666666675  0.300498948962  m  0  0  1
0.4  0.4  0.350501612691  m  0  0  1
0.733333333334  0.733333333334  0.400131970897  m  0  0  1
0.0666666666675  0.0666666666675  0.449972435197  m  0  0  1
0.733333333334  0.733333333334  0.499837000092  m  0  0  1
0.4  0.4  0.549507251031  m  0  0  1
0.0666666666675  0.0666666666675  0.599549118205  m  0  0  1
0.733333333334  0.733333333334  0.649550903709  m  0  0  1
0.333333333332  0.333333333332  0.700259203674  m  0  0  1
0  0  0.750339618908  m  0  0  1
0.666666666668  0.666666666668  0.800308061014  m  0  0  1
0.333333333332  0.333333333332  0.850311817238  m  0  0  1
0  0  0.900009215555  m  0  0  1
0.666666666668  0.666666666668  0.949929610661  m  0  0  1
