%BLOCK LATTICE_CART
2.879674328135    0.000000000000    0.000000000000    
-1.439837164068    2.493871122791    0.000000000000    
0.000000000000    0.000000000000    4.725325424823    
%END BLOCK LATTICE_CART
%BLOCK POSITIONS_FRAC
Al    0.000000000000    0.000000000000    0.000000000000
Al    0.666666666667    0.333333333333    0.500000000000
%END BLOCK POSITIONS_FRAC
%BLOCK SPECIES_POT
Al al.gga.recpot
%END BLOCK SPECIES_POT
