ATOMIC_SPECIES
In 114.818 in.gga.psp blps
As 74.922 as.gga.psp blps

LATTICE_CONSTANT
1.9109814511396361  // add lattice constant

LATTICE_VECTORS
2.155699850258    -3.733781666516    0.000000000000    
2.155699850258    3.733781666516    0.000000000000    
0.000000000000    0.000000000000    7.088785580000    

ATOMIC_POSITIONS
Direct

In
0.0
2
    0.666666666667    0.333333333333    0.500588140000 1 1 1
    0.333333333333    0.666666666667    0.000588140000 1 1 1
As
0.0
2
    0.666666666667    0.333333333333    0.874911860000 1 1 1
    0.333333333333    0.666666666667    0.374911860000 1 1 1
