ATOMIC_SPECIES
Ga  Ga_mass  Ga_pesudopotential
P  P_mass  P_pesudopotential
H  H_mass  H_pesudopotential
O  O_mass  O_pesudopotential
C  C_mass  C_pesudopotential

NUMERICAL_ORBITAL
Ga_orbital
P_orbital
H_orbital
O_orbital
C_orbital

LATTICE_CONSTANT
1.889727000000

LATTICE_VECTORS
46.817276638030  0.000000000000  0.000000000000
0.000000000000  30.388119817838  0.000000000000
0.000000000000  0.000000000000  49.657226434113

ATOMIC_POSITIONS
Direct

Ga
0
540
0.000709068380  0.015822058775  0.007444063202  1  1  1
0.000715647846  0.015733186801  0.340853657456  1  1  1
0.000639121213  0.015864854965  0.674120004842  1  1  1
0.334069536041  0.015802823424  0.007374081644  1  1  1
0.333900230045  0.015781980794  0.340739184177  1  1  1
0.333970939887  0.015859877315  0.674118330154  1  1  1
0.667312834320  0.015881519120  0.007454494676  1  1  1
0.667333743414  0.015802858184  0.340847401740  1  1  1
0.667307225530  0.015865598382  0.674128334197  1  1  1
0.332381997440  0.015600436170  0.229961696571  1  1  1
0.332475241579  0.015856799639  0.563322368937  1  1  1
0.332474583604  0.015830279579  0.896652233497  1  1  1
0.665787099581  0.015820867107  0.230007381929  1  1  1
0.665813168162  0.015845708339  0.563323623991  1  1  1
0.665814125669  0.015851728580  0.896657759391  1  1  1
0.999191747739  0.015791110124  0.230018204558  1  1  1
0.999146384015  0.015861737807  0.563317255862  1  1  1
0.999146092210  0.015838767808  0.896645155477  1  1  1
0.334325257033  0.015775417068  0.117870171901  1  1  1
0.332457393401  0.015732001038  0.451488602585  1  1  1
0.332463451631  0.015728260253  0.784817271727  1  1  1
0.665826567857  0.015738844157  0.118121874281  1  1  1
0.665803001279  0.015751911964  0.451504317195  1  1  1
0.665800325305  0.015750220679  0.784823034956  1  1  1
0.999137050110  0.015648930931  0.118088306253  1  1  1
0.999137206417  0.015756996483  0.451485100563  1  1  1
0.999136664584  0.015750052667  0.784827042346  1  1  1
0.167217322606  0.015615521815  0.009050065345  1  1  1
0.167356016091  0.015738601494  0.340619731392  1  1  1
0.167293877040  0.015760343966  0.675644978657  1  1  1
0.500657398409  0.015789452215  0.008978700972  1  1  1
0.500630774623  0.015775960446  0.342335956252  1  1  1
0.500638780326  0.015781623371  0.675660526648  1  1  1
0.833980933208  0.015802951602  0.009001275478  1  1  1
0.833986354191  0.015771452122  0.342330339777  1  1  1
0.833974367051  0.015786552143  0.675662489351  1  1  1
0.165492984381  0.008553576806  0.224062226108  1  1  1
0.165623137683  0.015318252160  0.559254215436  1  1  1
0.165623659734  0.015313691209  0.892602813320  1  1  1
0.498987369130  0.015289374907  0.225940361037  1  1  1
0.498961480309  0.015323209526  0.559264173963  1  1  1
0.498962700974  0.015326988313  0.892603710523  1  1  1
0.832303445752  0.015299846494  0.225916475853  1  1  1
0.832302357113  0.015332314404  0.559268121778  1  1  1
0.832303532063  0.015327492936  0.892605305374  1  1  1
0.161542829444  0.997970964151  0.109409806717  1  1  1
0.165600522295  0.016068075334  0.451146484846  1  1  1
0.165621260874  0.016001505987  0.784583643139  1  1  1
0.499266531604  0.016113185284  0.117863394462  1  1  1
0.498958955710  0.016040333002  0.451256033967  1  1  1
0.498963832670  0.016022060219  0.784582258788  1  1  1
0.832283101918  0.016036154874  0.117906548114  1  1  1
0.832300558294  0.016035385726  0.451256483017  1  1  1
0.832298476880  0.016015111651  0.784579709927  1  1  1
0.083514072830  0.015801524304  0.007504856015  1  1  1
0.083470462830  0.015873108939  0.340541335038  1  1  1
0.083452644591  0.015886506826  0.674143933894  1  1  1
0.416801968217  0.015909783329  0.007462481897  1  1  1
0.416767773539  0.015855959646  0.340814439254  1  1  1
0.416793669816  0.015896592980  0.674146804597  1  1  1
0.750134539919  0.015914140401  0.007485338097  1  1  1
0.750131250283  0.015879726970  0.340821208971  1  1  1
0.750127933620  0.015899503061  0.674150129031  1  1  1
0.081675211587  0.015763532542  0.229694049763  1  1  1
0.081355834683  0.015894647278  0.563218113173  1  1  1
0.081357175976  0.015871512046  0.896556631040  1  1  1
0.414709869682  0.015823610079  0.229863176639  1  1  1
0.414689952747  0.015886193233  0.563229365437  1  1  1
0.414692730448  0.015873609756  0.896572004762  1  1  1
0.748037459177  0.015837304211  0.229870914012  1  1  1
0.748031935415  0.015881086417  0.563229027325  1  1  1
0.748032471469  0.015877748768  0.896564222296  1  1  1
0.081960586801  0.015408277186  0.119678052803  1  1  1
0.081572165727  0.015745252909  0.451339003038  1  1  1
0.081531181983  0.015687133844  0.784823752402  1  1  1
0.416375236364  0.015764290979  0.118090902895  1  1  1
0.414851523494  0.015693493351  0.451489447420  1  1  1
0.414864323350  0.015679987489  0.784808943238  1  1  1
0.748218544656  0.015694072595  0.118119601567  1  1  1
0.748207141692  0.015697916156  0.451493195406  1  1  1
0.748202376904  0.015689920473  0.784808981054  1  1  1
0.250150879678  0.015825938527  0.007462608866  1  1  1
0.250185548278  0.015927543136  0.340647390110  1  1  1
0.250271816045  0.015910114169  0.674226714340  1  1  1
0.583608164969  0.015941821028  0.007572174192  1  1  1
0.583592711301  0.015874043739  0.340971576155  1  1  1
0.583608432434  0.015922804374  0.674243960821  1  1  1
0.916957295113  0.015928416086  0.007571350776  1  1  1
0.916944682200  0.015825746467  0.341002422213  1  1  1
0.916945196499  0.015931380165  0.674231058873  1  1  1
0.249819463408  0.015366648783  0.228024228824  1  1  1
0.250267976335  0.018985595637  0.563130286566  1  1  1
0.250263843706  0.018949503960  0.896456139495  1  1  1
0.583632971722  0.018935063634  0.229822890097  1  1  1
0.583609198641  0.018967913988  0.563129061615  1  1  1
0.583606409003  0.018983425987  0.896472288907  1  1  1
0.916996830457  0.018926845983  0.229817645656  1  1  1
0.916944819610  0.018998018160  0.563140331376  1  1  1
0.916946950910  0.018987241065  0.896482461141  1  1  1
0.254208362652  0.018593783261  0.117592618275  1  1  1
0.250095999524  0.015817700991  0.452612961846  1  1  1
0.250093336964  0.015809519172  0.786004740002  1  1  1
0.583507224434  0.015830441166  0.119282763948  1  1  1
0.583437135890  0.015844975419  0.452689501742  1  1  1
0.583437525078  0.015837867974  0.786013516842  1  1  1
0.916743980062  0.015822775577  0.119292265212  1  1  1
0.916779411580  0.015852115365  0.452699491348  1  1  1
0.916774329365  0.015838453756  0.786012375118  1  1  1
0.125518466740  0.064409002403  0.055212710708  1  1  1
0.125177652283  0.063899739222  0.387108129405  1  1  1
0.125111988094  0.064102236213  0.721334844311  1  1  1
0.458541916160  0.064078788563  0.054349436800  1  1  1
0.458456192938  0.064081238110  0.387940354147  1  1  1
0.458462467954  0.064086669460  0.721288017774  1  1  1
0.791791363893  0.064084633763  0.054575885432  1  1  1
0.791794665242  0.064083410254  0.387942069152  1  1  1
0.791794404423  0.064087853254  0.721282078873  1  1  1
0.125224187543  0.064184929894  0.276413576226  1  1  1
0.125281095247  0.064434373992  0.610894181058  1  1  1
0.125271865251  0.064437288068  0.944354579852  1  1  1
0.458643292230  0.064422612657  0.277574149895  1  1  1
0.458626399169  0.064424941197  0.610888605889  1  1  1
0.458629153279  0.064420181981  0.944222854213  1  1  1
0.791960219788  0.064424819974  0.277557690854  1  1  1
0.791962059796  0.064430346556  0.610889859727  1  1  1
0.791960670039  0.064426917824  0.944230230593  1  1  1
0.125219775384  0.064286877926  0.165059158416  1  1  1
0.123799315021  0.064473424455  0.498831288644  1  1  1
0.123797183248  0.064458985176  0.832179414035  1  1  1
0.457315861568  0.064519315804  0.165542121087  1  1  1
0.457129739864  0.064456322686  0.498832322237  1  1  1
0.457134399295  0.064458960301  0.832178190175  1  1  1
0.790474470724  0.064465209510  0.165505186232  1  1  1
0.790476676091  0.064457790682  0.498836700891  1  1  1
0.790476909034  0.064460631583  0.832181608550  1  1  1
0.292130765050  0.063997905326  0.053673217649  1  1  1
0.291767698523  0.064045645918  0.388050522390  1  1  1
0.291784059223  0.064020775762  0.721364692190  1  1  1
0.625127616756  0.064032229119  0.054679803993  1  1  1
0.625121278457  0.064017349457  0.388026039463  1  1  1
0.625119190510  0.064016080248  0.721345854406  1  1  1
0.958468153801  0.064055064082  0.054757112890  1  1  1
0.958453116900  0.064044130500  0.388036711492  1  1  1
0.958459098460  0.064021676913  0.721358368772  1  1  1
0.291781237401  0.064097787991  0.276540964978  1  1  1
0.291956019249  0.064200942556  0.609976628195  1  1  1
0.291965192921  0.064188275156  0.943340765352  1  1  1
0.625289117846  0.064311162012  0.277195817504  1  1  1
0.625291659530  0.064214494137  0.610027785375  1  1  1
0.625292503809  0.064205474942  0.943328278509  1  1  1
0.958624477202  0.064409190291  0.277534351439  1  1  1
0.958622448083  0.064205128975  0.609986362575  1  1  1
0.958612693696  0.064213340508  0.943383098557  1  1  1
0.292078672813  0.064277533319  0.165715887200  1  1  1
0.291972063852  0.064165134651  0.498863401228  1  1  1
0.291972556939  0.064161454897  0.832219637721  1  1  1
0.625311374507  0.064185217827  0.165583201519  1  1  1
0.625313269301  0.064164611016  0.498880619161  1  1  1
0.625310259785  0.064164402074  0.832210058443  1  1  1
0.958665304192  0.064222715306  0.165640206685  1  1  1
0.958645652279  0.064167957217  0.498864127040  1  1  1
0.958647534487  0.064163788472  0.832212486232  1  1  1
0.041736245309  0.064135234588  0.055020938529  1  1  1
0.041449563432  0.064151535748  0.388057117464  1  1  1
0.041419506786  0.064102230126  0.721360570300  1  1  1
0.374903922968  0.064111506662  0.054675200560  1  1  1
0.374754798673  0.064096594672  0.388027993974  1  1  1
0.374761571798  0.064093509299  0.721341627653  1  1  1
0.708104343144  0.064101428834  0.054659833289  1  1  1
0.708095581967  0.064093265698  0.388021401077  1  1  1
0.708090463263  0.064093625287  0.721338509355  1  1  1
0.041437776810  0.064302988188  0.276575939916  1  1  1
0.041358785784  0.064180356028  0.609811801287  1  1  1
0.041363415970  0.064164933072  0.943191690024  1  1  1
0.374676540107  0.064187422048  0.276611927461  1  1  1
0.374699979825  0.064164400403  0.609790837614  1  1  1
0.374720733451  0.064165319699  0.943127802829  1  1  1
0.708060146032  0.064179604131  0.276488346747  1  1  1
0.708035264602  0.064170684141  0.609809577235  1  1  1
0.708036800247  0.064170140115  0.943139408450  1  1  1
0.041338325549  0.064189068444  0.165796677748  1  1  1
0.041131218153  0.064093557746  0.498857251282  1  1  1
0.041126824062  0.064087090890  0.832208462101  1  1  1
0.374616038654  0.064101463729  0.165560544094  1  1  1
0.374461149208  0.064083666715  0.498857731101  1  1  1
0.374464309916  0.064083030034  0.832211352383  1  1  1
0.707802283225  0.064097144403  0.165563064658  1  1  1
0.707800866821  0.064086290620  0.498875039404  1  1  1
0.707798394612  0.064088713787  0.832210252397  1  1  1
0.207540747740  0.064183181420  0.055114312782  1  1  1
0.208192512570  0.064098329164  0.388146620063  1  1  1
0.208326719188  0.064130918910  0.721562698862  1  1  1
0.541681654409  0.064134633702  0.054865904455  1  1  1
0.541665836930  0.064117696913  0.388202243222  1  1  1
0.541673664889  0.064122878846  0.721539048687  1  1  1
0.874973339316  0.064136210756  0.054868535055  1  1  1
0.874999304987  0.064128548284  0.388209370274  1  1  1
0.875007634413  0.064126200999  0.721543122550  1  1  1
0.208043064820  0.064050403923  0.276428236201  1  1  1
0.208004955777  0.064743279321  0.611199872227  1  1  1
0.208005358696  0.064737135014  0.944555031185  1  1  1
0.541331141525  0.064743309160  0.277864475980  1  1  1
0.541343778765  0.064743907898  0.611209118435  1  1  1
0.541343124703  0.064744452169  0.944537420648  1  1  1
0.874645516331  0.064754900862  0.277862514586  1  1  1
0.874683340871  0.064742488343  0.611198559797  1  1  1
0.874670113712  0.064740701426  0.944540588775  1  1  1
0.208018986111  0.067564622380  0.167258280473  1  1  1
0.207868227092  0.064722350331  0.498916638245  1  1  1
0.207867492163  0.064704579843  0.832265828566  1  1  1
0.541247512969  0.064718791195  0.165595590635  1  1  1
0.541209521035  0.064705962177  0.498924419289  1  1  1
0.541212146227  0.064706605528  0.832257291404  1  1  1
0.874528685371  0.064722366628  0.165613170143  1  1  1
0.874551962929  0.064706850911  0.498913615838  1  1  1
0.874556060842  0.064708315754  0.832263916167  1  1  1
0.000000000000  0.130439996734  0.000000000000  0  0  0
0.000000000000  0.130439996734  0.333333333334  0  0  0
0.000000000000  0.130439996734  0.666666666666  0  0  0
0.333333333334  0.130439996734  0.000000000000  0  0  0
0.333333333334  0.130439996734  0.333333333334  0  0  0
0.333333333334  0.130439996734  0.666666666666  0  0  0
0.666666666666  0.130439996734  0.000000000000  0  0  0
0.666666666666  0.130439996734  0.333333333334  0  0  0
0.666666666666  0.130439996734  0.666666666666  0  0  0
0.000000000000  0.130439996734  0.222223341380  0  0  0
0.000000000000  0.130439996734  0.555556674713  0  0  0
0.000000000000  0.130439996734  0.888890008047  0  0  0
0.333333333334  0.130439996734  0.222223341380  0  0  0
0.333333333334  0.130439996734  0.555556674713  0  0  0
0.333333333334  0.130439996734  0.888890008047  0  0  0
0.666666666666  0.130439996734  0.222223341380  0  0  0
0.666666666666  0.130439996734  0.555556674713  0  0  0
0.666666666666  0.130439996734  0.888890008047  0  0  0
0.000000000000  0.130439996734  0.111110001801  0  0  0
0.000000000000  0.130439996734  0.444443335133  0  0  0
0.000000000000  0.130439996734  0.777776668467  0  0  0
0.333333333334  0.130439996734  0.111110001801  0  0  0
0.333333333334  0.130439996734  0.444443335133  0  0  0
0.333333333334  0.130439996734  0.777776668467  0  0  0
0.666666666666  0.130439996734  0.111110001801  0  0  0
0.666666666666  0.130439996734  0.444443335133  0  0  0
0.666666666666  0.130439996734  0.777776668467  0  0  0
0.166666666675  0.130439996734  0.000000000000  0  0  0
0.166666666675  0.130439996734  0.333333333334  0  0  0
0.166666666675  0.130439996734  0.666666666666  0  0  0
0.500000000009  0.130439996734  0.000000000000  0  0  0
0.500000000009  0.130439996734  0.333333333334  0  0  0
0.500000000009  0.130439996734  0.666666666666  0  0  0
0.833333333341  0.130439996734  0.000000000000  0  0  0
0.833333333341  0.130439996734  0.333333333334  0  0  0
0.833333333341  0.130439996734  0.666666666666  0  0  0
0.166666666675  0.130439996734  0.222223341380  0  0  0
0.166666666675  0.130439996734  0.555556674713  0  0  0
0.166666666675  0.130439996734  0.888890008047  0  0  0
0.500000000009  0.130439996734  0.222223341380  0  0  0
0.500000000009  0.130439996734  0.555556674713  0  0  0
0.500000000009  0.130439996734  0.888890008047  0  0  0
0.833333333341  0.130439996734  0.222223341380  0  0  0
0.833333333341  0.130439996734  0.555556674713  0  0  0
0.833333333341  0.130439996734  0.888890008047  0  0  0
0.166666666675  0.130439996734  0.111110001801  0  0  0
0.166666666675  0.130439996734  0.444443335133  0  0  0
0.166666666675  0.130439996734  0.777776668467  0  0  0
0.500000000009  0.130439996734  0.111110001801  0  0  0
0.500000000009  0.130439996734  0.444443335133  0  0  0
0.500000000009  0.130439996734  0.777776668467  0  0  0
0.833333333341  0.130439996734  0.111110001801  0  0  0
0.833333333341  0.130439996734  0.444443335133  0  0  0
0.833333333341  0.130439996734  0.777776668467  0  0  0
0.083333333327  0.130439996734  0.000000000000  0  0  0
0.083333333327  0.130439996734  0.333333333334  0  0  0
0.083333333327  0.130439996734  0.666666666666  0  0  0
0.416666666661  0.130439996734  0.000000000000  0  0  0
0.416666666661  0.130439996734  0.333333333334  0  0  0
0.416666666661  0.130439996734  0.666666666666  0  0  0
0.749999999993  0.130439996734  0.000000000000  0  0  0
0.749999999993  0.130439996734  0.333333333334  0  0  0
0.749999999993  0.130439996734  0.666666666666  0  0  0
0.083333333327  0.130439996734  0.222223341380  0  0  0
0.083333333327  0.130439996734  0.555556674713  0  0  0
0.083333333327  0.130439996734  0.888890008047  0  0  0
0.416666666661  0.130439996734  0.222223341380  0  0  0
0.416666666661  0.130439996734  0.555556674713  0  0  0
0.416666666661  0.130439996734  0.888890008047  0  0  0
0.749999999993  0.130439996734  0.222223341380  0  0  0
0.749999999993  0.130439996734  0.555556674713  0  0  0
0.749999999993  0.130439996734  0.888890008047  0  0  0
0.083333333327  0.130439996734  0.111110001801  0  0  0
0.083333333327  0.130439996734  0.444443335133  0  0  0
0.083333333327  0.130439996734  0.777776668467  0  0  0
0.416666666661  0.130439996734  0.111110001801  0  0  0
0.416666666661  0.130439996734  0.444443335133  0  0  0
0.416666666661  0.130439996734  0.777776668467  0  0  0
0.749999999993  0.130439996734  0.111110001801  0  0  0
0.749999999993  0.130439996734  0.444443335133  0  0  0
0.749999999993  0.130439996734  0.777776668467  0  0  0
0.250000000089  0.130439996734  0.000000000000  0  0  0
0.250000000089  0.130439996734  0.333333333334  0  0  0
0.250000000089  0.130439996734  0.666666666666  0  0  0
0.583333333421  0.130439996734  0.000000000000  0  0  0
0.583333333421  0.130439996734  0.333333333334  0  0  0
0.583333333421  0.130439996734  0.666666666666  0  0  0
0.916666666755  0.130439996734  0.000000000000  0  0  0
0.916666666755  0.130439996734  0.333333333334  0  0  0
0.916666666755  0.130439996734  0.666666666666  0  0  0
0.250000000089  0.130439996734  0.222223341380  0  0  0
0.250000000089  0.130439996734  0.555556674713  0  0  0
0.250000000089  0.130439996734  0.888890008047  0  0  0
0.583333333421  0.130439996734  0.222223341380  0  0  0
0.583333333421  0.130439996734  0.555556674713  0  0  0
0.583333333421  0.130439996734  0.888890008047  0  0  0
0.916666666755  0.130439996734  0.222223341380  0  0  0
0.916666666755  0.130439996734  0.555556674713  0  0  0
0.916666666755  0.130439996734  0.888890008047  0  0  0
0.250000000089  0.130439996734  0.111110001801  0  0  0
0.250000000089  0.130439996734  0.444443335133  0  0  0
0.250000000089  0.130439996734  0.777776668467  0  0  0
0.583333333421  0.130439996734  0.111110001801  0  0  0
0.583333333421  0.130439996734  0.444443335133  0  0  0
0.583333333421  0.130439996734  0.777776668467  0  0  0
0.916666666755  0.130439996734  0.111110001801  0  0  0
0.916666666755  0.130439996734  0.444443335133  0  0  0
0.916666666755  0.130439996734  0.777776668467  0  0  0
0.125923161211  0.196379861954  0.055408221993  1  1  1
0.125226331790  0.196708872665  0.388139225248  1  1  1
0.125230616489  0.196753069271  0.721433555902  1  1  1
0.458644481284  0.196756033678  0.054677671901  1  1  1
0.458570383250  0.196770863970  0.388067198432  1  1  1
0.458560404719  0.196767109117  0.721401589925  1  1  1
0.791853532912  0.196765825500  0.054698490918  1  1  1
0.792001899471  0.196759366237  0.388114102599  1  1  1
0.792023922629  0.196746151694  0.721458377005  1  1  1
0.125234493481  0.196601910857  0.276450212431  1  1  1
0.125236314749  0.196603440735  0.609820946240  1  1  1
0.125197199380  0.196582539417  0.943247172220  1  1  1
0.458594696473  0.196611419865  0.276497543577  1  1  1
0.458577122494  0.196614498822  0.609813629779  1  1  1
0.458582941748  0.196618331602  0.943148098125  1  1  1
0.791913294303  0.196618483023  0.276488434845  1  1  1
0.791919626098  0.196615240781  0.609820809955  1  1  1
0.791913401855  0.196611719764  0.943152320547  1  1  1
0.125403736971  0.196962813181  0.164760797144  1  1  1
0.125232051300  0.196234940668  0.498993072716  1  1  1
0.125228680943  0.196254620610  0.832342026533  1  1  1
0.458604556216  0.196244627688  0.165680197648  1  1  1
0.458563758091  0.196254589420  0.498995648254  1  1  1
0.458567952219  0.196252215724  0.832339509410  1  1  1
0.791896023002  0.196246895693  0.165663492543  1  1  1
0.791907822022  0.196253856149  0.498997682069  1  1  1
0.791908603260  0.196250423138  0.832340113178  1  1  1
0.292103862640  0.196574190476  0.054746899658  1  1  1
0.292041079496  0.196725326672  0.388231032399  1  1  1
0.292047200420  0.196755865831  0.721550576855  1  1  1
0.625368811022  0.196740706988  0.054881566650  1  1  1
0.625388945893  0.196765761826  0.388213737235  1  1  1
0.625380665373  0.196756330243  0.721544785335  1  1  1
0.958692624985  0.196699952169  0.054934955466  1  1  1
0.958791923502  0.196749316389  0.388188369314  1  1  1
0.958821576060  0.196763172566  0.721514038148  1  1  1
0.291707586337  0.196794879274  0.276442499346  1  1  1
0.291884547742  0.196609715903  0.609925698410  1  1  1
0.291925949169  0.196612472940  0.943258706803  1  1  1
0.625211571757  0.196588424622  0.276630505275  1  1  1
0.625221006969  0.196598334492  0.609963039069  1  1  1
0.625220811876  0.196603320528  0.943280331109  1  1  1
0.958554003437  0.196538735980  0.276694003127  1  1  1
0.958554226408  0.196602458039  0.609932686367  1  1  1
0.958542444797  0.196596584091  0.943310063707  1  1  1
0.291981490619  0.196554492891  0.165789403191  1  1  1
0.292007140453  0.196517320652  0.499022669041  1  1  1
0.292004521837  0.196516795132  0.832385852337  1  1  1
0.625341785337  0.196484311933  0.165742002494  1  1  1
0.625347676976  0.196512453341  0.499041841483  1  1  1
0.625345204139  0.196513496013  0.832369583272  1  1  1
0.958686422089  0.196453098112  0.165817795921  1  1  1
0.958681958479  0.196510583404  0.499023912605  1  1  1
0.958684068398  0.196514016123  0.832375399478  1  1  1
0.041887760173  0.196589670879  0.055148536228  1  1  1
0.041583908350  0.196632884557  0.388273985442  1  1  1
0.041623338245  0.196684291060  0.721621896526  1  1  1
0.375602780617  0.196662883670  0.054784070021  1  1  1
0.374917172283  0.196690078207  0.388291752442  1  1  1
0.374923013113  0.196690282076  0.721614363366  1  1  1
0.708252330939  0.196678673915  0.054941598460  1  1  1
0.708283949913  0.196687053448  0.388288862936  1  1  1
0.708289524911  0.196685431943  0.721615999667  1  1  1
0.041406299738  0.196464656469  0.276647552722  1  1  1
0.041387004541  0.196552388774  0.609878444327  1  1  1
0.041391609780  0.196552283156  0.943274169568  1  1  1
0.374706241183  0.196521077221  0.276725994484  1  1  1
0.374725847364  0.196570911541  0.609854519321  1  1  1
0.374748777838  0.196579967806  0.943188184876  1  1  1
0.708060148719  0.196544226699  0.276610528351  1  1  1
0.708062136007  0.196562638201  0.609879953486  1  1  1
0.708062718290  0.196561924426  0.943209662932  1  1  1
0.041590576381  0.196490821427  0.165967968055  1  1  1
0.041403821061  0.196494687835  0.499045118278  1  1  1
0.041398060980  0.196496151597  0.832396556072  1  1  1
0.374744556748  0.196559748599  0.165692445952  1  1  1
0.374732667809  0.196502067508  0.499045541406  1  1  1
0.374738244703  0.196499286944  0.832401156343  1  1  1
0.708073786787  0.196477735888  0.165750633150  1  1  1
0.708075076523  0.196496401945  0.499063711211  1  1  1
0.708072492646  0.196493200213  0.832398770586  1  1  1
0.207236406738  0.196558151242  0.055270644301  1  1  1
0.208608862974  0.196653405658  0.388124095298  1  1  1
0.208662862329  0.196691501794  0.721481801948  1  1  1
0.541933326182  0.196688422878  0.054781346624  1  1  1
0.542016268287  0.196704685586  0.388115253266  1  1  1
0.541944928610  0.196698872077  0.721457218838  1  1  1
0.875101640254  0.196675826405  0.054792738260  1  1  1
0.875994616571  0.196692420143  0.388115490652  1  1  1
0.876080258686  0.196695996111  0.721453084980  1  1  1
0.208061821970  0.197415303313  0.276228735777  1  1  1
0.208058240422  0.196523534712  0.610028664904  1  1  1
0.208049182270  0.196408856746  0.944043614288  1  1  1
0.541401737038  0.196521903846  0.276758489093  1  1  1
0.541397057589  0.196519468223  0.610065531476  1  1  1
0.541396106515  0.196525340343  0.943377330395  1  1  1
0.874728737006  0.196505619597  0.276794491992  1  1  1
0.874733088606  0.196526288496  0.610023474820  1  1  1
0.874725815150  0.196522033750  0.943385381018  1  1  1
0.208236091660  0.194608720350  0.167132818788  1  1  1
0.208171892659  0.196203996684  0.498986464995  1  1  1
0.208174114541  0.196208199211  0.832342593109  1  1  1
0.541522127434  0.196197001062  0.165672059107  1  1  1
0.541514372400  0.196207925784  0.498996272809  1  1  1
0.541519248445  0.196207932230  0.832327358323  1  1  1
0.874814694154  0.196184805508  0.165691468808  1  1  1
0.874857765676  0.196208898894  0.498985319028  1  1  1
0.874863032221  0.196205743150  0.832335383041  1  1  1
0.000727860811  0.244805868446  0.007469685805  1  1  1
0.000705029171  0.244821325587  0.340806047355  1  1  1
0.000690284751  0.244765340723  0.674145128637  1  1  1
0.334036197154  0.244760997554  0.007466830621  1  1  1
0.333941998235  0.244841094454  0.340775498645  1  1  1
0.334000385533  0.244769116357  0.674145693169  1  1  1
0.667336395346  0.244748554343  0.007484024362  1  1  1
0.667335844377  0.244784622147  0.340826781757  1  1  1
0.667340442840  0.244761508219  0.674157870015  1  1  1
0.332404659779  0.245094014480  0.229981707860  1  1  1
0.332507426811  0.244821643516  0.563369037956  1  1  1
0.332509868818  0.244849825198  0.896692737539  1  1  1
0.665842739230  0.244886425905  0.230021842196  1  1  1
0.665848461366  0.244832704435  0.563368864238  1  1  1
0.665848566787  0.244827259199  0.896703031987  1  1  1
0.999392095750  0.244951906104  0.229995411605  1  1  1
0.999181803858  0.244813013629  0.563365907929  1  1  1
0.999184056306  0.244834096689  0.896692291598  1  1  1
0.000794287183  0.244890053697  0.119302615029  1  1  1
0.000909814043  0.244845615070  0.452782750903  1  1  1
0.000916751253  0.244848473645  0.786121496111  1  1  1
0.334512571629  0.244834596014  0.118014912962  1  1  1
0.334229346693  0.244860229839  0.452782818496  1  1  1
0.334232471141  0.244869404077  0.786107811262  1  1  1
0.667564868855  0.244869610203  0.119414216035  1  1  1
0.667572731623  0.244846652192  0.452784852978  1  1  1
0.667571521271  0.244848839940  0.786110247308  1  1  1
0.167173883297  0.244964070498  0.007781272941  1  1  1
0.167310534836  0.244803764444  0.340720233882  1  1  1
0.167291083678  0.244753049014  0.674255458520  1  1  1
0.500636149552  0.244716603956  0.007595503868  1  1  1
0.500622921738  0.244743549761  0.340941112285  1  1  1
0.500626171172  0.244737694122  0.674265544682  1  1  1
0.833955503026  0.244719382781  0.007593821028  1  1  1
0.834007817422  0.244724863728  0.340969569921  1  1  1
0.834021424367  0.244708940671  0.674307712496  1  1  1
0.165552703009  0.252766705612  0.224158995315  1  1  1
0.165752510766  0.248238461993  0.559279496098  1  1  1
0.165781122605  0.248208342027  0.892664310056  1  1  1
0.499104868296  0.248248402117  0.225949540798  1  1  1
0.499091071813  0.248235221112  0.559287560284  1  1  1
0.499092785100  0.248233344101  0.892624397478  1  1  1
0.832440134095  0.248254679880  0.225944070977  1  1  1
0.832429888905  0.248227802246  0.559289515806  1  1  1
0.832432801342  0.248231125487  0.892628177156  1  1  1
0.163042356638  0.269537757088  0.107043960810  1  1  1
0.167514655957  0.244781363470  0.451267549829  1  1  1
0.167514491073  0.244763170452  0.784608482867  1  1  1
0.500865103076  0.244750772387  0.117941318873  1  1  1
0.500853178992  0.244738214409  0.451279139658  1  1  1
0.500856812079  0.244756370938  0.784614477420  1  1  1
0.834136224680  0.244755364194  0.117948768423  1  1  1
0.834211997342  0.244681241101  0.451228552418  1  1  1
0.834220309982  0.244683420863  0.784541893210  1  1  1
0.083589261258  0.244768229157  0.007421257760  1  1  1
0.083500196493  0.244689200208  0.340646168877  1  1  1
0.083494896487  0.244669657594  0.674067426031  1  1  1
0.416863873756  0.244664496896  0.007371397664  1  1  1
0.416811453541  0.244697506267  0.340745351096  1  1  1
0.416827801738  0.244657709046  0.674072807376  1  1  1
0.750163048953  0.244639354700  0.007411489050  1  1  1
0.750177481223  0.244670576979  0.340750996453  1  1  1
0.750181380326  0.244650472499  0.674082720988  1  1  1
0.082420780549  0.244872400212  0.229739109429  1  1  1
0.081369111737  0.244779709136  0.563031883343  1  1  1
0.081369993065  0.244804301991  0.896358710481  1  1  1
0.414708007249  0.244853220258  0.229628952299  1  1  1
0.414701625605  0.244787675825  0.563043285983  1  1  1
0.414706762186  0.244802893913  0.896379152866  1  1  1
0.748047377695  0.244828444210  0.229681928463  1  1  1
0.748044923424  0.244793051229  0.563044019709  1  1  1
0.748046680172  0.244795605601  0.896379564687  1  1  1
0.083494021976  0.245460944142  0.119871821635  1  1  1
0.083310870023  0.244884579681  0.452791002712  1  1  1
0.083314696131  0.244879805133  0.786142217165  1  1  1
0.416719382305  0.244895962875  0.119414879990  1  1  1
0.416640150278  0.244873448167  0.452809742513  1  1  1
0.416648759462  0.244890815950  0.786133128824  1  1  1
0.749976260430  0.244884220427  0.119450574970  1  1  1
0.749992579348  0.244870544494  0.452808008400  1  1  1
0.749992627598  0.244877710913  0.786128399766  1  1  1
0.250133216508  0.244729808713  0.007486282812  1  1  1
0.250233339656  0.244716431900  0.340657902246  1  1  1
0.250260545865  0.244661129074  0.674114812812  1  1  1
0.583592490062  0.244628409589  0.007461518191  1  1  1
0.583597724931  0.244657909967  0.340801462094  1  1  1
0.583596207645  0.244646242528  0.674133884937  1  1  1
0.916933016366  0.244641311820  0.007459447801  1  1  1
0.916981646071  0.244696777796  0.340772698937  1  1  1
0.916976092164  0.244659389905  0.674087976592  1  1  1
0.249739438673  0.247873556593  0.228012189697  1  1  1
0.250211372930  0.244458021008  0.563087256924  1  1  1
0.250175954395  0.244480948714  0.896459154260  1  1  1
0.583553372047  0.244533262042  0.229727908333  1  1  1
0.583551855218  0.244479940038  0.563085599703  1  1  1