INPUT_PARAMETERS
#Parameters (1.General)
suffix          GaP-331-1H3O
calculation     relax
ntype           5
nbands          5350
symmetry        0

#Parameters (2.Iteration)
ecutwfc         60
dr2             1e-6
niter           100

#Parameters (3.Basis)
basis_type      lcao
ks_solver       genelpa
gamma_only      1

#Parameters (4.Smearing)
smearing        gaussian
sigma           0.001

#Parameters (5.Mixing)
mixing_type     pulay
mixing_beta     0.1
mixing_ndim     20

force           1

nstep             500
force_thr_ev      0.05
move_method       cg
out_stru          1
