ATOMIC_SPECIES
Ga  Ga_mass  Ga_pesudopotential
P  P_mass  P_pesudopotential
H  H_mass  H_pesudopotential
O  O_mass  O_pesudopotential
C  C_mass  C_pesudopotential

NUMERICAL_ORBITAL
Ga_orbital
P_orbital
H_orbital
O_orbital
C_orbital

LATTICE_CONSTANT
1.889727000000

LATTICE_VECTORS
46.817279999960  0.000000000000  0.000000000000
0.000000000000  49.657229999978  0.000000000000
0.000000000000  0.000000000000  30.388121999996

ATOMIC_POSITIONS
Direct

Ga
0
540
0.000635783001  0.007478953732  0.015941615793  1  1  1
0.000635783001  0.340812287066  0.015941615793  1  1  1
0.000635783001  0.674145620399  0.015941615793  1  1  1
0.333969116335  0.007478953732  0.015941615793  1  1  1
0.333969116335  0.340812287066  0.015941615793  1  1  1
0.333969116335  0.674145620399  0.015941615793  1  1  1
0.667302449668  0.007478953732  0.015941615793  1  1  1
0.667302449668  0.340812287066  0.015941615793  1  1  1
0.667302449668  0.674145620399  0.015941615793  1  1  1
0.332481294411  0.229992740834  0.015853211791  1  1  1
0.332481294411  0.563326074168  0.015853211791  1  1  1
0.332481294411  0.896659407501  0.015853211791  1  1  1
0.665814627744  0.229992740834  0.015853211791  1  1  1
0.665814627744  0.563326074168  0.015853211791  1  1  1
0.665814627744  0.896659407501  0.015853211791  1  1  1
0.999147961077  0.229992740834  0.015853211791  1  1  1
0.999147961077  0.563326074168  0.015853211791  1  1  1
0.999147961077  0.896659407501  0.015853211791  1  1  1
0.332470454510  0.118170898566  0.015795896991  1  1  1
0.332470454510  0.451504231899  0.015795896991  1  1  1
0.332470454510  0.784837565233  0.015795896991  1  1  1
0.665803787844  0.118170898566  0.015795896991  1  1  1
0.665803787844  0.451504231899  0.015795896991  1  1  1
0.665803787844  0.784837565233  0.015795896991  1  1  1
0.999137121177  0.118170898566  0.015795896991  1  1  1
0.999137121177  0.451504231899  0.015795896991  1  1  1
0.999137121177  0.784837565233  0.015795896991  1  1  1
0.167314095326  0.009000889993  0.015865482936  1  1  1
0.167314095326  0.342334223326  0.015865482936  1  1  1
0.167314095326  0.675667556659  0.015865482936  1  1  1
0.500647428660  0.009000889993  0.015865482936  1  1  1
0.500647428660  0.342334223326  0.015865482936  1  1  1
0.500647428660  0.675667556659  0.015865482936  1  1  1
0.833980761993  0.009000889993  0.015865482936  1  1  1
0.833980761993  0.342334223326  0.015865482936  1  1  1
0.833980761993  0.675667556659  0.015865482936  1  1  1
0.165631327789  0.225936736645  0.015373638897  1  1  1
0.165631327789  0.559270069978  0.015373638897  1  1  1
0.165631327789  0.892603403311  0.015373638897  1  1  1
0.498964661123  0.225936736645  0.015373638897  1  1  1
0.498964661123  0.559270069978  0.015373638897  1  1  1
0.498964661123  0.892603403311  0.015373638897  1  1  1
0.832297994456  0.225936736645  0.015373638897  1  1  1
0.832297994456  0.559270069978  0.015373638897  1  1  1
0.832297994456  0.892603403311  0.015373638897  1  1  1
0.165619566305  0.117906138141  0.016130334287  1  1  1
0.165619566305  0.451239471474  0.016130334287  1  1  1
0.165619566305  0.784572804807  0.016130334287  1  1  1
0.498952899639  0.117906138141  0.016130334287  1  1  1
0.498952899639  0.451239471474  0.016130334287  1  1  1
0.498952899639  0.784572804807  0.016130334287  1  1  1
0.832286232972  0.117906138141  0.016130334287  1  1  1
0.832286232972  0.451239471474  0.016130334287  1  1  1
0.832286232972  0.784572804807  0.016130334287  1  1  1
0.083463266275  0.007489581704  0.015968610366  1  1  1
0.083463266275  0.340822915038  0.015968610366  1  1  1
0.083463266275  0.674156248371  0.015968610366  1  1  1
0.416796599608  0.007489581704  0.015968610366  1  1  1
0.416796599608  0.340822915038  0.015968610366  1  1  1
0.416796599608  0.674156248371  0.015968610366  1  1  1
0.750129932942  0.007489581704  0.015968610366  1  1  1
0.750129932942  0.340822915038  0.015968610366  1  1  1
0.750129932942  0.674156248371  0.015968610366  1  1  1
0.081390181395  0.229892990638  0.015921867577  1  1  1
0.081390181395  0.563226323971  0.015921867577  1  1  1
0.081390181395  0.896559657304  0.015921867577  1  1  1
0.414723514729  0.229892990638  0.015921867577  1  1  1
0.414723514729  0.563226323971  0.015921867577  1  1  1
0.414723514729  0.896559657304  0.015921867577  1  1  1
0.748056848062  0.229892990638  0.015921867577  1  1  1
0.748056848062  0.563226323971  0.015921867577  1  1  1
0.748056848062  0.896559657304  0.015921867577  1  1  1
0.081568938170  0.118123812553  0.015793568035  1  1  1
0.081568938170  0.451457145886  0.015793568035  1  1  1
0.081568938170  0.784790479220  0.015793568035  1  1  1
0.414902271504  0.118123812553  0.015793568035  1  1  1
0.414902271504  0.451457145886  0.015793568035  1  1  1
0.414902271504  0.784790479220  0.015793568035  1  1  1
0.748235604837  0.118123812553  0.015793568035  1  1  1
0.748235604837  0.451457145886  0.015793568035  1  1  1
0.748235604837  0.784790479220  0.015793568035  1  1  1
0.250277829168  0.007613747081  0.015995147092  1  1  1
0.250277829168  0.340947080414  0.015995147092  1  1  1
0.250277829168  0.674280413747  0.015995147092  1  1  1
0.583611162502  0.007613747081  0.015995147092  1  1  1
0.583611162502  0.340947080414  0.015995147092  1  1  1
0.583611162502  0.674280413747  0.015995147092  1  1  1
0.916944495835  0.007613747081  0.015995147092  1  1  1
0.916944495835  0.340947080414  0.015995147092  1  1  1
0.916944495835  0.674280413747  0.015995147092  1  1  1
0.250258271795  0.229786989590  0.018994419210  1  1  1
0.250258271795  0.563120322923  0.018994419210  1  1  1
0.250258271795  0.896453656256  0.018994419210  1  1  1
0.583591605129  0.229786989590  0.018994419210  1  1  1
0.583591605129  0.563120322923  0.018994419210  1  1  1
0.583591605129  0.896453656256  0.018994419210  1  1  1
0.916924938462  0.229786989590  0.018994419210  1  1  1
0.916924938462  0.563120322923  0.018994419210  1  1  1
0.916924938462  0.896453656256  0.018994419210  1  1  1
0.250083786763  0.119334989228  0.015907773548  1  1  1
0.250083786763  0.452668322561  0.015907773548  1  1  1
0.250083786763  0.786001655894  0.015907773548  1  1  1
0.583417120097  0.119334989228  0.015907773548  1  1  1
0.583417120097  0.452668322561  0.015907773548  1  1  1
0.583417120097  0.786001655894  0.015907773548  1  1  1
0.916750453430  0.119334989228  0.015907773548  1  1  1
0.916750453430  0.452668322561  0.015907773548  1  1  1
0.916750453430  0.786001655894  0.015907773548  1  1  1
0.125106821166  0.054415693679  0.064087225179  1  1  1
0.125106821166  0.387749027013  0.064087225179  1  1  1
0.125106821166  0.721082360346  0.064087225179  1  1  1
0.458440154499  0.054415693679  0.064087225179  1  1  1
0.458440154499  0.387749027013  0.064087225179  1  1  1
0.458440154499  0.721082360346  0.064087225179  1  1  1
0.791773487833  0.054415693679  0.064087225179  1  1  1
0.791773487833  0.387749027013  0.064087225179  1  1  1
0.791773487833  0.721082360346  0.064087225179  1  1  1
0.125302214766  0.277471046949  0.064438847143  1  1  1
0.125302214766  0.610804380283  0.064438847143  1  1  1
0.125302214766  0.944137713616  0.064438847143  1  1  1
0.458635548099  0.277471046949  0.064438847143  1  1  1
0.458635548099  0.610804380283  0.064438847143  1  1  1
0.458635548099  0.944137713616  0.064438847143  1  1  1
0.791968881432  0.277471046949  0.064438847143  1  1  1
0.791968881432  0.610804380283  0.064438847143  1  1  1
0.791968881432  0.944137713616  0.064438847143  1  1  1
0.123815617303  0.165480737878  0.064490942312  1  1  1
0.123815617303  0.498814071212  0.064490942312  1  1  1
0.123815617303  0.832147404545  0.064490942312  1  1  1
0.457148950636  0.165480737878  0.064490942312  1  1  1
0.457148950636  0.498814071212  0.064490942312  1  1  1
0.457148950636  0.832147404545  0.064490942312  1  1  1
0.790482283970  0.165480737878  0.064490942312  1  1  1
0.790482283970  0.498814071212  0.064490942312  1  1  1
0.790482283970  0.832147404545  0.064490942312  1  1  1
0.291790064528  0.054633190936  0.064044245841  1  1  1
0.291790064528  0.387966524269  0.064044245841  1  1  1
0.291790064528  0.721299857603  0.064044245841  1  1  1
0.625123397861  0.054633190936  0.064044245841  1  1  1
0.625123397861  0.387966524269  0.064044245841  1  1  1
0.625123397861  0.721299857603  0.064044245841  1  1  1
0.958456731195  0.054633190936  0.064044245841  1  1  1
0.958456731195  0.387966524269  0.064044245841  1  1  1
0.958456731195  0.721299857603  0.064044245841  1  1  1
0.291954279966  0.276684434016  0.064247759933  1  1  1
0.291954279966  0.610017767350  0.064247759933  1  1  1
0.291954279966  0.943351100683  0.064247759933  1  1  1
0.625287613299  0.276684434016  0.064247759933  1  1  1
0.625287613299  0.610017767350  0.064247759933  1  1  1
0.625287613299  0.943351100683  0.064247759933  1  1  1
0.958620946632  0.276684434016  0.064247759933  1  1  1
0.958620946632  0.610017767350  0.064247759933  1  1  1
0.958620946632  0.943351100683  0.064247759933  1  1  1
0.291972071915  0.165538140323  0.064207531870  1  1  1
0.291972071915  0.498871473656  0.064207531870  1  1  1
0.291972071915  0.832204806990  0.064207531870  1  1  1
0.625305405249  0.165538140323  0.064207531870  1  1  1
0.625305405249  0.498871473656  0.064207531870  1  1  1
0.625305405249  0.832204806990  0.064207531870  1  1  1
0.958638738582  0.165538140323  0.064207531870  1  1  1
0.958638738582  0.498871473656  0.064207531870  1  1  1
0.958638738582  0.832204806990  0.064207531870  1  1  1
0.041433131256  0.054610608460  0.064114930708  1  1  1
0.041433131256  0.387943941794  0.064114930708  1  1  1
0.041433131256  0.721277275127  0.064114930708  1  1  1
0.374766464589  0.054610608460  0.064114930708  1  1  1
0.374766464589  0.387943941794  0.064114930708  1  1  1
0.374766464589  0.721277275127  0.064114930708  1  1  1
0.708099797923  0.054610608460  0.064114930708  1  1  1
0.708099797923  0.387943941794  0.064114930708  1  1  1
0.708099797923  0.721277275127  0.064114930708  1  1  1
0.041387611357  0.276465848953  0.064200194444  1  1  1
0.041387611357  0.609799182287  0.064200194444  1  1  1
0.041387611357  0.943132515620  0.064200194444  1  1  1
0.374720944690  0.276465848953  0.064200194444  1  1  1
0.374720944690  0.609799182287  0.064200194444  1  1  1
0.374720944690  0.943132515620  0.064200194444  1  1  1
0.708054278023  0.276465848953  0.064200194444  1  1  1
0.708054278023  0.609799182287  0.064200194444  1  1  1
0.708054278023  0.943132515620  0.064200194444  1  1  1
0.041142481051  0.165531479100  0.064122710106  1  1  1
0.041142481051  0.498864812433  0.064122710106  1  1  1
0.041142481051  0.832198145766  0.064122710106  1  1  1
0.374475814384  0.165531479100  0.064122710106  1  1  1
0.374475814384  0.498864812433  0.064122710106  1  1  1
0.374475814384  0.832198145766  0.064122710106  1  1  1
0.707809147718  0.165531479100  0.064122710106  1  1  1
0.707809147718  0.498864812433  0.064122710106  1  1  1
0.707809147718  0.832198145766  0.064122710106  1  1  1
0.208307449579  0.054848091814  0.064154745817  1  1  1
0.208307449579  0.388181425147  0.064154745817  1  1  1
0.208307449579  0.721514758481  0.064154745817  1  1  1
0.541640782912  0.054848091814  0.064154745817  1  1  1
0.541640782912  0.388181425147  0.064154745817  1  1  1
0.541640782912  0.721514758481  0.064154745817  1  1  1
0.874974116246  0.054848091814  0.064154745817  1  1  1
0.874974116246  0.388181425147  0.064154745817  1  1  1
0.874974116246  0.721514758481  0.064154745817  1  1  1
0.208018651433  0.277858227059  0.064779231254  1  1  1
0.208018651433  0.611191560392  0.064779231254  1  1  1
0.208018651433  0.944524893725  0.064779231254  1  1  1
0.541351984766  0.277858227059  0.064779231254  1  1  1
0.541351984766  0.611191560392  0.064779231254  1  1  1
0.541351984766  0.944524893725  0.064779231254  1  1  1
0.874685318100  0.277858227059  0.064779231254  1  1  1
0.874685318100  0.611191560392  0.064779231254  1  1  1
0.874685318100  0.944524893725  0.064779231254  1  1  1
0.207866820175  0.165580751107  0.064766295667  1  1  1
0.207866820175  0.498914084441  0.064766295667  1  1  1
0.207866820175  0.832247417774  0.064766295667  1  1  1
0.541200153509  0.165580751107  0.064766295667  1  1  1
0.541200153509  0.498914084441  0.064766295667  1  1  1
0.541200153509  0.832247417774  0.064766295667  1  1  1
0.874533486842  0.165580751107  0.064766295667  1  1  1
0.874533486842  0.498914084441  0.064766295667  1  1  1
0.874533486842  0.832247417774  0.064766295667  1  1  1
0.000000000000  0.000000000000  0.130439996734  0  0  0
0.000000000000  0.333333333333  0.130439996734  0  0  0
0.000000000000  0.666666666667  0.130439996734  0  0  0
0.333333333333  0.000000000000  0.130439996734  0  0  0
0.333333333333  0.333333333333  0.130439996734  0  0  0
0.333333333333  0.666666666667  0.130439996734  0  0  0
0.666666666667  0.000000000000  0.130439996734  0  0  0
0.666666666667  0.333333333333  0.130439996734  0  0  0
0.666666666667  0.666666666667  0.130439996734  0  0  0
0.000000000000  0.222223341380  0.130439996734  0  0  0
0.000000000000  0.555556674713  0.130439996734  0  0  0
0.000000000000  0.888890008047  0.130439996734  0  0  0
0.333333333333  0.222223341380  0.130439996734  0  0  0
0.333333333333  0.555556674713  0.130439996734  0  0  0
0.333333333333  0.888890008047  0.130439996734  0  0  0
0.666666666667  0.222223341380  0.130439996734  0  0  0
0.666666666667  0.555556674713  0.130439996734  0  0  0
0.666666666667  0.888890008047  0.130439996734  0  0  0
0.000000000000  0.111110001800  0.130439996734  0  0  0
0.000000000000  0.444443335133  0.130439996734  0  0  0
0.000000000000  0.777776668467  0.130439996734  0  0  0
0.333333333333  0.111110001800  0.130439996734  0  0  0
0.333333333333  0.444443335133  0.130439996734  0  0  0
0.333333333333  0.777776668467  0.130439996734  0  0  0
0.666666666667  0.111110001800  0.130439996734  0  0  0
0.666666666667  0.444443335133  0.130439996734  0  0  0
0.666666666667  0.777776668467  0.130439996734  0  0  0
0.166666666675  0.000000000000  0.130439996734  0  0  0
0.166666666675  0.333333333333  0.130439996734  0  0  0
0.166666666675  0.666666666667  0.130439996734  0  0  0
0.500000000008  0.000000000000  0.130439996734  0  0  0
0.500000000008  0.333333333333  0.130439996734  0  0  0
0.500000000008  0.666666666667  0.130439996734  0  0  0
0.833333333342  0.000000000000  0.130439996734  0  0  0
0.833333333342  0.333333333333  0.130439996734  0  0  0
0.833333333342  0.666666666667  0.130439996734  0  0  0
0.166666666675  0.222223341380  0.130439996734  0  0  0
0.166666666675  0.555556674713  0.130439996734  0  0  0
0.166666666675  0.888890008047  0.130439996734  0  0  0
0.500000000008  0.222223341380  0.130439996734  0  0  0
0.500000000008  0.555556674713  0.130439996734  0  0  0
0.500000000008  0.888890008047  0.130439996734  0  0  0
0.833333333342  0.222223341380  0.130439996734  0  0  0
0.833333333342  0.555556674713  0.130439996734  0  0  0
0.833333333342  0.888890008047  0.130439996734  0  0  0
0.166666666675  0.111110001800  0.130439996734  0  0  0
0.166666666675  0.444443335133  0.130439996734  0  0  0
0.166666666675  0.777776668467  0.130439996734  0  0  0
0.500000000008  0.111110001800  0.130439996734  0  0  0
0.500000000008  0.444443335133  0.130439996734  0  0  0
0.500000000008  0.777776668467  0.130439996734  0  0  0
0.833333333342  0.111110001800  0.130439996734  0  0  0
0.833333333342  0.444443335133  0.130439996734  0  0  0
0.833333333342  0.777776668467  0.130439996734  0  0  0
0.083333333327  0.000000000000  0.130439996734  0  0  0
0.083333333327  0.333333333333  0.130439996734  0  0  0
0.083333333327  0.666666666667  0.130439996734  0  0  0
0.416666666660  0.000000000000  0.130439996734  0  0  0
0.416666666660  0.333333333333  0.130439996734  0  0  0
0.416666666660  0.666666666667  0.130439996734  0  0  0
0.749999999993  0.000000000000  0.130439996734  0  0  0
0.749999999993  0.333333333333  0.130439996734  0  0  0
0.749999999993  0.666666666667  0.130439996734  0  0  0
0.083333333327  0.222223341380  0.130439996734  0  0  0
0.083333333327  0.555556674713  0.130439996734  0  0  0
0.083333333327  0.888890008047  0.130439996734  0  0  0
0.416666666660  0.222223341380  0.130439996734  0  0  0
0.416666666660  0.555556674713  0.130439996734  0  0  0
0.416666666660  0.888890008047  0.130439996734  0  0  0
0.749999999993  0.222223341380  0.130439996734  0  0  0
0.749999999993  0.555556674713  0.130439996734  0  0  0
0.749999999993  0.888890008047  0.130439996734  0  0  0
0.083333333327  0.111110001800  0.130439996734  0  0  0
0.083333333327  0.444443335133  0.130439996734  0  0  0
0.083333333327  0.777776668467  0.130439996734  0  0  0
0.416666666660  0.111110001800  0.130439996734  0  0  0
0.416666666660  0.444443335133  0.130439996734  0  0  0
0.416666666660  0.777776668467  0.130439996734  0  0  0
0.749999999993  0.111110001800  0.130439996734  0  0  0
0.749999999993  0.444443335133  0.130439996734  0  0  0
0.749999999993  0.777776668467  0.130439996734  0  0  0
0.250000000089  0.000000000000  0.130439996734  0  0  0
0.250000000089  0.333333333333  0.130439996734  0  0  0
0.250000000089  0.666666666667  0.130439996734  0  0  0
0.583333333422  0.000000000000  0.130439996734  0  0  0
0.583333333422  0.333333333333  0.130439996734  0  0  0
0.583333333422  0.666666666667  0.130439996734  0  0  0
0.916666666755  0.000000000000  0.130439996734  0  0  0
0.916666666755  0.333333333333  0.130439996734  0  0  0
0.916666666755  0.666666666667  0.130439996734  0  0  0
0.250000000089  0.222223341380  0.130439996734  0  0  0
0.250000000089  0.555556674713  0.130439996734  0  0  0
0.250000000089  0.888890008047  0.130439996734  0  0  0
0.583333333422  0.222223341380  0.130439996734  0  0  0
0.583333333422  0.555556674713  0.130439996734  0  0  0
0.583333333422  0.888890008047  0.130439996734  0  0  0
0.916666666755  0.222223341380  0.130439996734  0  0  0
0.916666666755  0.555556674713  0.130439996734  0  0  0
0.916666666755  0.888890008047  0.130439996734  0  0  0
0.250000000089  0.111110001800  0.130439996734  0  0  0
0.250000000089  0.444443335133  0.130439996734  0  0  0
0.250000000089  0.777776668467  0.130439996734  0  0  0
0.583333333422  0.111110001800  0.130439996734  0  0  0
0.583333333422  0.444443335133  0.130439996734  0  0  0
0.583333333422  0.777776668467  0.130439996734  0  0  0
0.916666666755  0.111110001800  0.130439996734  0  0  0
0.916666666755  0.444443335133  0.130439996734  0  0  0
0.916666666755  0.777776668467  0.130439996734  0  0  0
0.125242130669  0.054701339730  0.196734442606  1  1  1
0.125242130669  0.388034673064  0.196734442606  1  1  1
0.125242130669  0.721368006397  0.196734442606  1  1  1
0.458575464002  0.054701339730  0.196734442606  1  1  1
0.458575464002  0.388034673064  0.196734442606  1  1  1
0.458575464002  0.721368006397  0.196734442606  1  1  1
0.791908797336  0.054701339730  0.196734442606  1  1  1
0.791908797336  0.388034673064  0.196734442606  1  1  1
0.791908797336  0.721368006397  0.196734442606  1  1  1
0.125254351657  0.276458485982  0.196596467018  1  1  1
0.125254351657  0.609791819316  0.196596467018  1  1  1
0.125254351657  0.943125152649  0.196596467018  1  1  1
0.458587684990  0.276458485982  0.196596467018  1  1  1
0.458587684990  0.609791819316  0.196596467018  1  1  1
0.458587684990  0.943125152649  0.196596467018  1  1  1
0.791921018324  0.276458485982  0.196596467018  1  1  1
0.791921018324  0.609791819316  0.196596467018  1  1  1
0.791921018324  0.943125152649  0.196596467018  1  1  1
0.125248658193  0.165640615890  0.196231883165  1  1  1
0.125248658193  0.498973949223  0.196231883165  1  1  1
0.125248658193  0.832307282556  0.196231883165  1  1  1
0.458581991526  0.165640615890  0.196231883165  1  1  1
0.458581991526  0.498973949223  0.196231883165  1  1  1
0.458581991526  0.832307282556  0.196231883165  1  1  1
0.791915324860  0.165640615890  0.196231883165  1  1  1
0.791915324860  0.498973949223  0.196231883165  1  1  1
0.791915324860  0.832307282556  0.196231883165  1  1  1
0.292050717692  0.054842642681  0.196730961669  1  1  1
0.292050717692  0.388175976015  0.196730961669  1  1  1
0.292050717692  0.721509309348  0.196730961669  1  1  1
0.625384051026  0.054842642681  0.196730961669  1  1  1
0.625384051026  0.388175976015  0.196730961669  1  1  1
0.625384051026  0.721509309348  0.196730961669  1  1  1
0.958717384359  0.054842642681  0.196730961669  1  1  1
0.958717384359  0.388175976015  0.196730961669  1  1  1
0.958717384359  0.721509309348  0.196730961669  1  1  1
0.291873768806  0.276623632195  0.196571651696  1  1  1
0.291873768806  0.609956965528  0.196571651696  1  1  1
0.291873768806  0.943290298862  0.196571651696  1  1  1
0.625207102139  0.276623632195  0.196571651696  1  1  1
0.625207102139  0.609956965528  0.196571651696  1  1  1
0.625207102139  0.943290298862  0.196571651696  1  1  1
0.958540435473  0.276623632195  0.196571651696  1  1  1
0.958540435473  0.609956965528  0.196571651696  1  1  1
0.958540435473  0.943290298862  0.196571651696  1  1  1
0.292022307520  0.165698882720  0.196480327147  1  1  1
0.292022307520  0.499032216054  0.196480327147  1  1  1
0.292022307520  0.832365549387  0.196480327147  1  1  1
0.625355640854  0.165698882720  0.196480327147  1  1  1
0.625355640854  0.499032216054  0.196480327147  1  1  1
0.625355640854  0.832365549387  0.196480327147  1  1  1
0.958688974187  0.165698882720  0.196480327147  1  1  1
0.958688974187  0.499032216054  0.196480327147  1  1  1
0.958688974187  0.832365549387  0.196480327147  1  1  1
0.041602029186  0.054908565395  0.196661817098  1  1  1
0.041602029186  0.388241898728  0.196661817098  1  1  1
0.041602029186  0.721575232061  0.196661817098  1  1  1
0.374935362520  0.054908565395  0.196661817098  1  1  1
0.374935362520  0.388241898728  0.196661817098  1  1  1
0.374935362520  0.721575232061  0.196661817098  1  1  1
0.708268695853  0.054908565395  0.196661817098  1  1  1
0.708268695853  0.388241898728  0.196661817098  1  1  1
0.708268695853  0.721575232061  0.196661817098  1  1  1
0.041402735856  0.276534409951  0.196538175711  1  1  1
0.041402735856  0.609867743284  0.196538175711  1  1  1
0.041402735856  0.943201076617  0.196538175711  1  1  1
0.374736069190  0.276534409951  0.196538175711  1  1  1
0.374736069190  0.609867743284  0.196538175711  1  1  1
0.374736069190  0.943201076617  0.196538175711  1  1  1
0.708069402523  0.276534409951  0.196538175711  1  1  1
0.708069402523  0.609867743284  0.196538175711  1  1  1
0.708069402523  0.943201076617  0.196538175711  1  1  1
0.041431203433  0.165720977894  0.196462748149  1  1  1
0.041431203433  0.499054311228  0.196462748149  1  1  1
0.041431203433  0.832387644561  0.196462748149  1  1  1
0.374764536766  0.165720977894  0.196462748149  1  1  1
0.374764536766  0.499054311228  0.196462748149  1  1  1
0.374764536766  0.832387644561  0.196462748149  1  1  1
0.708097870100  0.165720977894  0.196462748149  1  1  1
0.708097870100  0.499054311228  0.196462748149  1  1  1
0.708097870100  0.832387644561  0.196462748149  1  1  1
0.208664088579  0.054745766075  0.196664578689  1  1  1
0.208664088579  0.388079099409  0.196664578689  1  1  1
0.208664088579  0.721412432742  0.196664578689  1  1  1
0.541997421913  0.054745766075  0.196664578689  1  1  1
0.541997421913  0.388079099409  0.196664578689  1  1  1
0.541997421913  0.721412432742  0.196664578689  1  1  1
0.875330755246  0.054745766075  0.196664578689  1  1  1
0.875330755246  0.388079099409  0.196664578689  1  1  1
0.875330755246  0.721412432742  0.196664578689  1  1  1
0.208067807226  0.276652667341  0.196524639768  1  1  1
0.208067807226  0.609986000675  0.196524639768  1  1  1
0.208067807226  0.943319334008  0.196524639768  1  1  1
0.541401140559  0.276652667341  0.196524639768  1  1  1
0.541401140559  0.609986000675  0.196524639768  1  1  1
0.541401140559  0.943319334008  0.196524639768  1  1  1
0.874734473893  0.276652667341  0.196524639768  1  1  1
0.874734473893  0.609986000675  0.196524639768  1  1  1
0.874734473893  0.943319334008  0.196524639768  1  1  1
0.208188106961  0.165648885049  0.196179285376  1  1  1
0.208188106961  0.498982218382  0.196179285376  1  1  1
0.208188106961  0.832315551715  0.196179285376  1  1  1
0.541521440294  0.165648885049  0.196179285376  1  1  1
0.541521440294  0.498982218382  0.196179285376  1  1  1
0.541521440294  0.832315551715  0.196179285376  1  1  1
0.874854773627  0.165648885049  0.196179285376  1  1  1
0.874854773627  0.498982218382  0.196179285376  1  1  1
0.874854773627  0.832315551715  0.196179285376  1  1  1
0.000659605012  0.007511647759  0.244701028050  1  1  1
0.000659605012  0.340844981092  0.244701028050  1  1  1
0.000659605012  0.674178314425  0.244701028050  1  1  1
0.333992938346  0.007511647759  0.244701028050  1  1  1
0.333992938346  0.340844981092  0.244701028050  1  1  1
0.333992938346  0.674178314425  0.244701028050  1  1  1
0.667326271679  0.007511647759  0.244701028050  1  1  1
0.667326271679  0.340844981092  0.244701028050  1  1  1
0.667326271679  0.674178314425  0.244701028050  1  1  1
0.332511672575  0.230045737511  0.244835880747  1  1  1
0.332511672575  0.563379070844  0.244835880747  1  1  1
0.332511672575  0.896712404178  0.244835880747  1  1  1
0.665845005909  0.230045737511  0.244835880747  1  1  1
0.665845005909  0.563379070844  0.244835880747  1  1  1
0.665845005909  0.896712404178  0.244835880747  1  1  1
0.999178339242  0.230045737511  0.244835880747  1  1  1
0.999178339242  0.563379070844  0.244835880747  1  1  1
0.999178339242  0.896712404178  0.244835880747  1  1  1
0.000919755483  0.119462283975  0.244816722454  1  1  1
0.000919755483  0.452795617308  0.244816722454  1  1  1
0.000919755483  0.786128950641  0.244816722454  1  1  1
0.334253088817  0.119462283975  0.244816722454  1  1  1
0.334253088817  0.452795617308  0.244816722454  1  1  1
0.334253088817  0.786128950641  0.244816722454  1  1  1
0.667586422150  0.119462283975  0.244816722454  1  1  1
0.667586422150  0.452795617308  0.244816722454  1  1  1
0.667586422150  0.786128950641  0.244816722454  1  1  1
0.167295572988  0.007633756112  0.244658572613  1  1  1
0.167295572988  0.340967089446  0.244658572613  1  1  1
0.167295572988  0.674300422779  0.244658572613  1  1  1
0.500628906322  0.007633756112  0.244658572613  1  1  1
0.500628906322  0.340967089446  0.244658572613  1  1  1
0.500628906322  0.674300422779  0.244658572613  1  1  1
0.833962239655  0.007633756112  0.244658572613  1  1  1
0.833962239655  0.340967089446  0.244658572613  1  1  1
0.833962239655  0.674300422779  0.244658572613  1  1  1
0.165766171389  0.225949606893  0.248209292990  1  1  1
0.165766171389  0.559282940226  0.248209292990  1  1  1
0.165766171389  0.892616273559  0.248209292990  1  1  1
0.499099504722  0.225949606893  0.248209292990  1  1  1
0.499099504722  0.559282940226  0.248209292990  1  1  1
0.499099504722  0.892616273559  0.248209292990  1  1  1
0.832432838056  0.225949606893  0.248209292990  1  1  1
0.832432838056  0.559282940226  0.248209292990  1  1  1
0.832432838056  0.892616273559  0.248209292990  1  1  1
0.167533865837  0.117959195565  0.244704367967  1  1  1
0.167533865837  0.451292528898  0.244704367967  1  1  1
0.167533865837  0.784625862231  0.244704367967  1  1  1
0.500867199170  0.117959195565  0.244704367967  1  1  1
0.500867199170  0.451292528898  0.244704367967  1  1  1
0.500867199170  0.784625862231  0.244704367967  1  1  1
0.834200532503  0.117959195565  0.244704367967  1  1  1
0.834200532503  0.451292528898  0.244704367967  1  1  1
0.834200532503  0.784625862231  0.244704367967  1  1  1
0.083496050488  0.007438815445  0.244583482530  1  1  1
0.083496050488  0.340772148779  0.244583482530  1  1  1
0.083496050488  0.674105482112  0.244583482530  1  1  1
0.416829383821  0.007438815445  0.244583482530  1  1  1
0.416829383821  0.340772148779  0.244583482530  1  1  1
0.416829383821  0.674105482112  0.244583482530  1  1  1
0.750162717154  0.007438815445  0.244583482530  1  1  1
0.750162717154  0.340772148779  0.244583482530  1  1  1
0.750162717154  0.674105482112  0.244583482530  1  1  1
0.081401315495  0.229724383444  0.244756880393  1  1  1
0.081401315495  0.563057716777  0.244756880393  1  1  1
0.081401315495  0.896391050110  0.244756880393  1  1  1
0.414734648829  0.229724383444  0.244756880393  1  1  1
0.414734648829  0.563057716777  0.244756880393  1  1  1
0.414734648829  0.896391050110  0.244756880393  1  1  1
0.748067982162  0.229724383444  0.244756880393  1  1  1
0.748067982162  0.563057716777  0.244756880393  1  1  1
0.748067982162  0.896391050110  0.244756880393  1  1  1
0.083344512069  0.119475267828  0.244808620406  1  1  1
0.083344512069  0.452808601161  0.244808620406  1  1  1
0.083344512069  0.786141934495  0.244808620406  1  1  1
0.416677845402  0.119475267828  0.244808620406  1  1  1
0.416677845402  0.452808601161  0.244808620406  1  1  1
0.416677845402  0.786141934495  0.244808620406  1  1  1
0.750011178735  0.119475267828  0.244808620406  1  1  1
0.750011178735  0.452808601161  0.244808620406  1  1  1
0.750011178735  0.786141934495  0.244808620406  1  1  1
0.250261820987  0.007488012559  0.244581100524  1  1  1
0.250261820987  0.340821345892  0.244581100524  1  1  1
0.250261820987  0.674154679226  0.244581100524  1  1  1
0.583595154320  0.007488012559  0.244581100524  1  1  1
0.583595154320  0.340821345892  0.244581100524  1  1  1
0.583595154320  0.674154679226  0.244581100524  1  1  1
0.916928487653  0.007488012559  0.244581100524  1  1  1
0.916928487653  0.340821345892  0.244581100524  1  1  1
0.916928487653  0.674154679226  0.244581100524  1  1  1
0.250201288475  0.229754116412  0.244433557656  1  1  1
0.250201288475  0.563087449746  0.244433557656  1  1  1
0.250201288475  0.896420783079  0.244433557656  1  1  1
0.583534621809  0.229754116412  0.244433557656  1  1  1
0.583534621809  0.563087449746  0.244433557656  1  1  1