%BLOCK LATTICE_CART
  -1.590681001909503   1.591168329434394   1.591168311027906
   1.591168256689741  -1.590680971109310   1.591168280198183
   1.591168252775121   1.591168294690052  -1.590680967188676
%END BLOCK LATTICE_CART
%BLOCK POSITIONS_FRAC
    Al   0.000000000000000   0.000000000000000   0.000000000000000
%END BLOCK POSITIONS_FRAC
%BLOCK SPECIES_POT
    Al al.lda.recpot                                                                          
%END BLOCK SPECIES_POT
