%BLOCK LATTICE_CART
   0.000972171484948   2.802533843694039   2.802742140385408
   2.802727425737474   0.001135855578226   2.802772696388340
   2.802686689219497   2.802523663050805   0.000926702435904
%END BLOCK LATTICE_CART
%BLOCK POSITIONS_FRAC
    Li   0.000000000000000   0.000000000000000   0.000000000000000
    Li   0.250000000000000   0.250000000000000   0.250000000000000
%END BLOCK POSITIONS_FRAC
%BLOCK SPECIES_POT
    Li li.lda.recpot                                                                          
%END BLOCK SPECIES_POT
