%BLOCK LATTICE_CART
   2.805799707700000   0.000000000000000   0.000000000000000
   1.402899853850000   2.429893824799152   0.000000000000000
   0.000000000000003   0.000000000000002  51.396178228018762
%END BLOCK LATTICE_CART
%BLOCK POSITIONS_FRAC
    Al   0.000000000000000   0.000000000000000   0.999977675427256
    Al   0.333333333300000   0.333333333300000   0.045382585499874
    Al   0.666666666700000   0.666666666700000   0.090785864578614
    Al   0.000000000000000   0.000000000000000   0.136185025260909
    Al   0.333333333300000   0.333333333300000   0.181604478410932
    Al   0.000000000000000   0.000000000000000   0.227061094517204
    Al   0.400000000000000   0.400000000000000   0.272986343126873
    Al   0.733333333300000   0.733333333300000   0.318388150457866
    Al   0.066666666700000   0.066666666700000   0.363768735832180
    Al   0.400000000000000   0.400000000000000   0.409143494969101
    Al   0.733333333300000   0.733333333300000   0.454544548453749
    Al   0.400000000000000   0.400000000000000   0.499945690070233
    Al   0.066666666700000   0.066666666700000   0.545320694932714
    Al   0.733333333300000   0.733333333300000   0.590701651418427
    Al   0.400000000000000   0.400000000000000   0.636103914970494
    Al   0.000000000000000   0.000000000000000   0.682029643192400
    Al   0.333333333300000   0.333333333300000   0.727486758745603
    Al   0.000000000000000   0.000000000000000   0.772906661321578
    Al   0.666666666700000   0.666666666700000   0.818306192598368
    Al   0.333333333300000   0.333333333300000   0.863709743763717
    Al   0.000000000000000   0.000000000000000   0.909114817138258
    Al   0.666666666700000   0.666666666700000   0.954546272898582
%END BLOCK POSITIONS_FRAC
%BLOCK SPECIES_POT
    Al al.lda.recpot                                                                          
%END BLOCK SPECIES_POT
%BLOCK ION_OPTIMIZATION
           0           0           1
           0           0           1
           0           0           1
           0           0           1
           0           0           1
           0           0           1
           0           0           1
           0           0           1
           0           0           1
           0           0           1
           0           0           1
           0           0           1
           0           0           1
           0           0           1
           0           0           1
           0           0           1
           0           0           1
           0           0           1
           0           0           1
           0           0           1
           0           0           1
           0           0           1
%END BLOCK ION_OPTIMIZATION
