%BLOCK LATTICE_CART
8.000883760146    0.000000000000    0.000000000000    
0.000000000000    8.000883760146    0.000000000000    
0.000000000000    0.000000000000    8.000883760146    
%END BLOCK LATTICE_CART
%BLOCK POSITIONS_FRAC
Al    0.250000000000    0.250000000000    0.000000000000
Al    0.250000000000    0.000000000000    0.250000000000
Al    0.000000000000    0.250000000000    0.250000000000
Al    0.000000000000    0.000000000000    0.500000000000
Al    0.250000000000    0.250000000000    0.500000000000
Al    0.250000000000    0.000000000000    0.750000000000
Al    0.000000000000    0.250000000000    0.750000000000
Al    0.000000000000    0.500000000000    0.000000000000
Al    0.250000000000    0.750000000000    0.000000000000
Al    0.250000000000    0.500000000000    0.250000000000
Al    0.000000000000    0.750000000000    0.250000000000
Al    0.000000000000    0.500000000000    0.500000000000
Al    0.250000000000    0.750000000000    0.500000000000
Al    0.250000000000    0.500000000000    0.750000000000
Al    0.000000000000    0.750000000000    0.750000000000
Al    0.500000000000    0.000000000000    0.000000000000
Al    0.750000000000    0.250000000000    0.000000000000
Al    0.750000000000    0.000000000000    0.250000000000
Al    0.500000000000    0.250000000000    0.250000000000
Al    0.500000000000    0.000000000000    0.500000000000
Al    0.750000000000    0.250000000000    0.500000000000
Al    0.750000000000    0.000000000000    0.750000000000
Al    0.500000000000    0.250000000000    0.750000000000
Al    0.500000000000    0.500000000000    0.000000000000
Al    0.750000000000    0.750000000000    0.000000000000
Al    0.750000000000    0.500000000000    0.250000000000
Al    0.500000000000    0.750000000000    0.250000000000
Al    0.500000000000    0.500000000000    0.500000000000
Al    0.750000000000    0.750000000000    0.500000000000
Al    0.750000000000    0.500000000000    0.750000000000
Al    0.500000000000    0.750000000000    0.750000000000
%END BLOCK POSITIONS_FRAC
%BLOCK SPECIES_POT
Al al.lda.recpot
%END BLOCK SPECIES_POT
