%BLOCK LATTICE_CART
3.050397097831    0.000000000000    0.000000000000    
-1.525198548916    2.641721378352    0.000000000000    
0.000000000000    0.000000000000    4.988685161757    
%END BLOCK LATTICE_CART
%BLOCK POSITIONS_FRAC
Mg    0.000000000000    0.000000000000    0.000000000000
Mg    0.666666666667    0.333333333333    0.500000000000
%END BLOCK POSITIONS_FRAC
%BLOCK SPECIES_POT
Mg mg.gga.recpot
%END BLOCK SPECIES_POT
