%BLOCK LATTICE_CART
4.003296320000    0.000000000000    0.000000000000    
0.000000000000    4.003296320000    0.000000000000    
0.000000000000    0.000000000000    7.970208040000    
%END BLOCK LATTICE_CART
%BLOCK POSITIONS_FRAC
Li    0.000000000000    0.000000000000    0.000000000000
Li    0.500000000000    0.500000000000    0.500000000000
Al    0.000000000000    0.500000000000    0.250000000000
Al    0.500000000000    0.000000000000    0.250000000000
Al    0.500000000000    0.500000000000    0.000000000000
Al    0.500000000000    0.000000000000    0.750000000000
Al    0.000000000000    0.500000000000    0.750000000000
Al    0.000000000000    0.000000000000    0.500000000000
%END BLOCK POSITIONS_FRAC
%BLOCK SPECIES_POT
Li li.gga.recpot
Al al.gga.recpot
%END BLOCK SPECIES_POT
