%BLOCK LATTICE_CART
   2.812387583300000   0.000000000000000   0.000000000000000
   1.406193791650000   2.435599092425724   0.000000000000000
   0.000000000000003   0.000000000000002  46.044103726628258
%END BLOCK LATTICE_CART
%BLOCK POSITIONS_FRAC
    Al   0.000000000000000   0.000000000000000   0.000104702984362
    Al   0.333333333300000   0.333333333300000   0.049895078507371
    Al   0.666666666700000   0.666666666700000   0.099717556451452
    Al   0.000000000000000   0.000000000000000   0.149502755995125
    Al   0.333333333300000   0.333333333300000   0.199362048231373
    Al   0.933333333300000   0.933333333300000   0.250590381231096
    Al   0.266666666700000   0.266666666700000   0.300454089513709
    Al   0.600000000000000   0.600000000000000   0.350229952688771
    Al   0.933333333300000   0.933333333300000   0.399954927889625
    Al   0.266666666700000   0.266666666700000   0.449999836255495
    Al   0.933333333300000   0.933333333300000   0.500044816971420
    Al   0.600000000000000   0.600000000000000   0.549769896099417
    Al   0.266666666700000   0.266666666700000   0.599545779527796
    Al   0.933333333300000   0.933333333300000   0.649409471821931
    Al   0.333333333300000   0.333333333300000   0.700637866928531
    Al   1.000000000000000   1.000000000000000   0.750497266276155
    Al   0.666666666700000   0.666666666700000   0.800282636212788
    Al   0.333333333300000   0.333333333300000   0.850105193122016
    Al   0.000000000000000   0.000000000000000   0.899895524679411
    Al   0.666666666700000   0.666666666700000   0.950000089965911
%END BLOCK POSITIONS_FRAC
%BLOCK SPECIES_POT
    Al al.lda.recpot                                                                          
%END BLOCK SPECIES_POT
%BLOCK ION_OPTIMIZATION
           0           0           1
           0           0           1
           0           0           1
           0           0           1
           0           0           1
           0           0           1
           0           0           1
           0           0           1
           0           0           1
           0           0           1
           0           0           1
           0           0           1
           0           0           1
           0           0           1
           0           0           1
           0           0           1
           0           0           1
           0           0           1
           0           0           1
           0           0           1
%END BLOCK ION_OPTIMIZATION
