INPUT_PARAMETERS
#Parameters (1.General)
suffix			blpstest
calculation     scf
ntype			2
nbands			8
symmetry		1
pseudo_dir      /home/dell/2_software/g_pPROFESS/BLPSLibrary-master/GGA/real
pseudo_rcut     16
out_chg		1
cal_force	1
cal_stress	1

#Parameters (2.Iteration)
ecutwfc		58.79891903773247	
scf_nmax			100
dft_functional  XC_GGA_X_PBE+XC_GGA_C_PBE

#Parameters (3.Basis)
basis_type		pw
kspacing        0.05

#Parameters (4.Smearing)
smearing_method		gauss
smearing_sigma		0.0074

#Parameters (5.Mixing)
mixing_type		pulay
mixing_beta		0.7

#of_full_pw      1
#of_full_pw_dim  1
#of_ml_gene_data         1
#of_ml_chi_p    0.2
#of_ml_chi_q    0.1
#of_ml_chi_pnl    0.2
#of_ml_chi_qnl    0.1
