%BLOCK LATTICE_CART
   2.921850043153952   0.000000005729187   0.000000016164446
   0.000000005729187   2.921850043867285  -0.000000005290324
   0.000000016164446  -0.000000005290324   2.921850043869393
%END BLOCK LATTICE_CART
%BLOCK POSITIONS_FRAC
    Mg   0.000000000000000   0.000000000000000   0.000000000000000
%END BLOCK POSITIONS_FRAC
%BLOCK SPECIES_POT
    Mg mg.lda.recpot                                                                          
%END BLOCK SPECIES_POT
