%BLOCK LATTICE_CART
   2.650158162614934   0.000000004239079   0.000000010749996
   0.000000004239079   2.650158163095574  -0.000000002464965
   0.000000010749996  -0.000000002464965   2.650158163095893
%END BLOCK LATTICE_CART
%BLOCK POSITIONS_FRAC
    Al   0.000000000000000   0.000000000000000   0.000000000000000
%END BLOCK POSITIONS_FRAC
%BLOCK SPECIES_POT
    Al al.lda.recpot                                                                          
%END BLOCK SPECIES_POT
