%BLOCK LATTICE_CART
  -0.010249600776502   2.001553839081251   2.001553829063553
   2.001553785703074  -0.010249599226522   2.001553774508686
   2.001553773718912   2.001553772542221  -0.010249589182173
%END BLOCK LATTICE_CART
%BLOCK POSITIONS_FRAC
    Al   0.000000000000000   0.000000000000000   0.000000000000000
%END BLOCK POSITIONS_FRAC
%BLOCK SPECIES_POT
    Al al.lda.recpot                                                                          
%END BLOCK SPECIES_POT
