ATOMIC_SPECIES
Al 13 al.lda.lps

LATTICE_CONSTANT
7.50241114482

LATTICE_VECTORS
0.707106781187 0 0 #latvec1
0.353553390593 0.612372435696 0 #latvec2
0 0 12.124355653 #latvec3

ATOMIC_POSITIONS
Direct

Al #label
0 #magnetism
21 #number of atoms
0 0 0 0 0 1
0.333333333332 0.333333333332 0.0482888267992 0 0 1
0.666666666668 0.666666666668 0.0965788937539 0 0 1
0 0 0.14469118234 0 0 1
0.333333333332 0.333333333332 0.192898665875 0 0 1
0.666666666668 0.666666666668 0.240595538922 0 0 1
0 0 0.288158762336 0 0 1
0.333333333332 0.333333333332 0.335213874241 0 0 1
0.666666666668 0.666666666668 0.382266483997 0 0 1
0 0 0.429337028616 0 0 1
0.333333333332 0.333333333332 0.476394530962 0 0 1
0.666666666668 0.666666666668 0.523605469038 0 0 1
0 0 0.570662971384 0 0 1
0.333333333332 0.333333333332 0.617733516003 0 0 1
0.666666666668 0.666666666668 0.664786125759 0 0 1
0 0 0.711841237664 0 0 1
0.333333333332 0.333333333332 0.759404461078 0 0 1
0.666666666668 0.666666666668 0.807101334125 0 0 1
0 0 0.85530881766 0 0 1
0.333333333332 0.333333333332 0.903421106246 0 0 1
0.666666666668 0.666666666668 0.951711173201 0 0 1
