ATOMIC_SPECIES
Al  26.9810 al.gga.psp blps
Sb 121.7600 sb.gga.psp blps

LATTICE_CONSTANT
1.8897259886

LATTICE_VECTORS
        2.1867129701       -3.7874979659        0.0000000000
        2.1867129701        3.7874979659       -0.0000000000
        0.0000000000        0.0000000000        7.2012752379

ATOMIC_POSITIONS
Direct

Al #label
0.0000   #magnetism
2 #number of atoms
        0.6666666667        0.3333333333        0.5004023756 m 1 1 1
        0.3333333333        0.6666666667        0.0004023756 m 1 1 1

Sb #label
0.0000   #magnetism
2 #number of atoms
        0.6666666667        0.3333333333        0.8746976244 m 1 1 1
        0.3333333333        0.6666666667        0.3746976244 m 1 1 1
