%BLOCK LATTICE_CART
2.553884478579    0.000000000000    0.000000000000    
0.000000000000    2.553884478579    0.000000000000    
0.000000000000    0.000000000000    2.553884478579    
%END BLOCK LATTICE_CART
%BLOCK POSITIONS_FRAC
Si    0.000000000000    0.000000000000    0.000000000000
%END BLOCK POSITIONS_FRAC
%BLOCK SPECIES_POT
Si si.gga.recpot
%END BLOCK SPECIES_POT
