%BLOCK LATTICE_CART
   2.812387583300000   0.000000000000000   0.000000000000000
   1.406193791650000   2.435599092425724   0.000000000000000
   0.000000000000003   0.000000000000002  50.690237298637051
%END BLOCK LATTICE_CART
%BLOCK POSITIONS_FRAC
    Al   0.000000000000000   0.000000000000000   0.000051730139777
    Al   0.333333333300000   0.333333333300000   0.045265654432710
    Al   0.666666666700000   0.666666666700000   0.090537973973169
    Al   0.000000000000000   0.000000000000000   0.135733183320404
    Al   0.333333333300000   0.333333333300000   0.181262310887434
    Al   0.000000000000000   0.000000000000000   0.226714992295533
    Al   0.433333333300000   0.433333333300000   0.273614780942702
    Al   0.766666666700000   0.766666666700000   0.318676374597759
    Al   0.100000000000000   0.100000000000000   0.363918075732905
    Al   0.433333333300000   0.433333333300000   0.409077305862030
    Al   0.766666666700000   0.766666666700000   0.454544944912555
    Al   0.433333333300000   0.433333333300000   0.500012694779775
    Al   0.100000000000000   0.100000000000000   0.545172052620984
    Al   0.766666666700000   0.766666666700000   0.590414035673515
    Al   0.433333333300000   0.433333333300000   0.635475868105139
    Al   1.000000000000000   1.000000000000000   0.682375921236014
    Al   0.333333333300000   0.333333333300000   0.727828816221308
    Al   1.000000000000000   1.000000000000000   0.773358163232768
    Al   0.666666666700000   0.666666666700000   0.818553624667095
    Al   0.333333333300000   0.333333333300000   0.863826009657097
    Al   0.000000000000000   0.000000000000000   0.909039976985023
    Al   0.666666666700000   0.666666666700000   0.954545878789707
%END BLOCK POSITIONS_FRAC
%BLOCK SPECIES_POT
    Al al.lda.recpot                                                                          
%END BLOCK SPECIES_POT
%BLOCK ION_OPTIMIZATION
           0           0           1
           0           0           1
           0           0           1
           0           0           1
           0           0           1
           0           0           1
           0           0           1
           0           0           1
           0           0           1
           0           0           1
           0           0           1
           0           0           1
           0           0           1
           0           0           1
           0           0           1
           0           0           1
           0           0           1
           0           0           1
           0           0           1
           0           0           1
           0           0           1
           0           0           1
%END BLOCK ION_OPTIMIZATION
