ATOMIC_SPECIES
Al 27 al.lda.lps

LATTICE_CONSTANT
7.50241114482

LATTICE_VECTORS
0.707106781187 0 0 #latvec1
0.353553390593 0.612372435696 0 #latvec2
0 0 11.5470053838 #latvec3

ATOMIC_POSITIONS
Direct

Al #label
0 #magnetism
20 #number of atoms
0  0  0.999787792839  m  0  0  1
0.333333333332  0.333333333332  0.0495197186926  m  0  0  1
0.666666666668  0.666666666668  0.0996003349979  m  0  0  1
0  0  0.149696225687  m  0  0  1
0.333333333332  0.333333333332  0.200021861989  m  0  0  1
0.666666666668  0.666666666668  0.250295457817  m  0  0  1
0  0  0.300378843426  m  0  0  1
0.333333333332  0.333333333332  0.350542412659  m  0  0  1
0.666666666668  0.666666666668  0.400290896551  m  0  0  1
0  0  0.450129029875  m  0  0  1
0.666666666668  0.666666666668  0.499995727225  m  0  0  1
0.333333333332  0.333333333332  0.54971337123  m  0  0  1
0  0  0.599741671994  m  0  0  1
0.666666666668  0.666666666668  0.649766642023  m  0  0  1
0.333333333332  0.333333333332  0.699968028338  m  0  0  1
0  0  0.750179174891  m  0  0  1
0.666666666668  0.666666666668  0.800228335478  m  0  0  1
0.333333333332  0.333333333332  0.850288475359  m  0  0  1
0  0  0.899990141818  m  0  0  1
0.666666666668  0.666666666668  0.949865857113  m  0  0  1
