%BLOCK LATTICE_CART
   2.805799707700000   0.000000000000000   0.000000000000000
   1.402899853850000   2.429893824799152   0.000000000000000
   0.000000000000003   0.000000000000002  51.434138750712648
%END BLOCK LATTICE_CART
%BLOCK POSITIONS_FRAC
    Al   0.000000000000000   0.000000000000000   0.999937950585486
    Al   0.333333333300000   0.333333333300000   0.045298260096434
    Al   0.666666666700000   0.666666666700000   0.090654048314755
    Al   0.000000000000000   0.000000000000000   0.136007969474331
    Al   0.333333333300000   0.333333333300000   0.181391038759229
    Al   0.000000000000000   0.000000000000000   0.226818953576171
    Al   0.433333333300000   0.433333333300000   0.273069850590934
    Al   0.766666666700000   0.766666666700000   0.318452037574544
    Al   0.100000000000000   0.100000000000000   0.363805346303009
    Al   0.433333333300000   0.433333333300000   0.409159655537077
    Al   0.766666666700000   0.766666666700000   0.454543856942528
    Al   0.433333333300000   0.433333333300000   0.499928209477147
    Al   0.100000000000000   0.100000000000000   0.545282925205413
    Al   0.766666666700000   0.766666666700000   0.590636874130994
    Al   0.433333333300000   0.433333333300000   0.636019850975414
    Al   0.000000000000000   0.000000000000000   0.682271599308717
    Al   0.333333333300000   0.333333333300000   0.727700429523695
    Al   1.000000000000000   1.000000000000000   0.773084357786756
    Al   0.666666666700000   0.666666666700000   0.818438997734391
    Al   0.333333333300000   0.333333333300000   0.863795334273210
    Al   0.000000000000000   0.000000000000000   0.909155973919638
    Al   0.666666666700000   0.666666666700000   0.954547020501681
%END BLOCK POSITIONS_FRAC
%BLOCK SPECIES_POT
    Al al.lda.recpot                                                                          
%END BLOCK SPECIES_POT
%BLOCK ION_OPTIMIZATION
           0           0           1
           0           0           1
           0           0           1
           0           0           1
           0           0           1
           0           0           1
           0           0           1
           0           0           1
           0           0           1
           0           0           1
           0           0           1
           0           0           1
           0           0           1
           0           0           1
           0           0           1
           0           0           1
           0           0           1
           0           0           1
           0           0           1
           0           0           1
           0           0           1
           0           0           1
%END BLOCK ION_OPTIMIZATION
