%BLOCK LATTICE_CART
  -0.001235561940427   2.217125457127963   2.217125453738353
   2.217125459329491  -0.001235561998210   2.217125455994247
   2.217125459413945   2.217125459468310  -0.001235558615511
%END BLOCK LATTICE_CART
%BLOCK POSITIONS_FRAC
    Mg   0.000000000000000   0.000000000000000   0.000000000000000
%END BLOCK POSITIONS_FRAC
%BLOCK SPECIES_POT
    Mg mg.lda.recpot                                                                          
%END BLOCK SPECIES_POT
