%BLOCK LATTICE_CART
   2.805799707700000   0.000000000000000   0.000000000000000
   1.402899853850000   2.429893824799152   0.000000000000000
   0.000000000000003   0.000000000000002  51.354414940425549
%END BLOCK LATTICE_CART
%BLOCK POSITIONS_FRAC
    Al   0.000000000000000   0.000000000000000   0.000015813720565
    Al   0.333333333300000   0.333333333300000   0.045444152370548
    Al   0.666666666700000   0.666666666700000   0.090872453988994
    Al   0.000000000000000   0.000000000000000   0.136295836412173
    Al   0.333333333300000   0.333333333300000   0.181746167352784
    Al   0.000000000000000   0.000000000000000   0.227198013646935
    Al   0.633333333300000   0.633333333300000   0.272810523219898
    Al   0.966666666700000   0.966666666700000   0.318260486655621
    Al   0.300000000000000   0.300000000000000   0.363683957959651
    Al   0.633333333300000   0.633333333300000   0.409105680732567
    Al   0.966666666700000   0.966666666700000   0.454545426172053
    Al   0.633333333300000   0.633333333300000   0.499985185800880
    Al   0.300000000000000   0.300000000000000   0.545406936998056
    Al   0.966666666700000   0.966666666700000   0.590830444825960
    Al   0.633333333300000   0.633333333300000   0.636280440341458
    Al   0.000000000000000   0.000000000000000   0.681892963709835
    Al   0.333333333300000   0.333333333300000   0.727344806957605
    Al   1.000000000000000   1.000000000000000   0.772795108894012
    Al   0.666666666700000   0.666666666700000   0.818218450172762
    Al   0.333333333300000   0.333333333300000   0.863646706905831
    Al   0.000000000000000   0.000000000000000   0.909075012453465
    Al   0.666666666700000   0.666666666700000   0.954545405420724
%END BLOCK POSITIONS_FRAC
%BLOCK SPECIES_POT
    Al al.lda.recpot                                                                          
%END BLOCK SPECIES_POT
%BLOCK ION_OPTIMIZATION
           0           0           1
           0           0           1
           0           0           1
           0           0           1
           0           0           1
           0           0           1
           0           0           1
           0           0           1
           0           0           1
           0           0           1
           0           0           1
           0           0           1
           0           0           1
           0           0           1
           0           0           1
           0           0           1
           0           0           1
           0           0           1
           0           0           1
           0           0           1
           0           0           1
           0           0           1
%END BLOCK ION_OPTIMIZATION
