%BLOCK LATTICE_CART
   2.805799707700000   0.000000000000000   0.000000000000000
   1.402899853850000   2.429893824799152   0.000000000000000
   0.000000000000003   0.000000000000002  46.395138640489300
%END BLOCK LATTICE_CART
%BLOCK POSITIONS_FRAC
    Al   0.000000000000000   0.000000000000000   0.000232072069026
    Al   0.333333333300000   0.333333333300000   0.049871455045570
    Al   0.666666666700000   0.666666666700000   0.099475637321440
    Al   0.000000000000000   0.000000000000000   0.149068471152007
    Al   0.333333333300000   0.333333333300000   0.199180798121798
    Al   0.900000000000000   0.900000000000000   0.250728075317637
    Al   0.233333333300000   0.233333333300000   0.300778185154851
    Al   0.566666666700000   0.566666666700000   0.350319139545741
    Al   0.900000000000000   0.900000000000000   0.399860888886197
    Al   0.233333333300000   0.233333333300000   0.449999814065741
    Al   0.900000000000000   0.900000000000000   0.500138788856185
    Al   0.566666666700000   0.566666666700000   0.549680613624692
    Al   0.233333333300000   0.233333333300000   0.599221566525929
    Al   0.900000000000000   0.900000000000000   0.649271672220919
    Al   0.333333333300000   0.333333333300000   0.700819012028569
    Al   0.000000000000000   0.000000000000000   0.750931432231556
    Al   0.666666666700000   0.666666666700000   0.800524413418875
    Al   0.333333333300000   0.333333333300000   0.850128696117307
    Al   0.000000000000000   0.000000000000000   0.899768065306573
    Al   0.666666666700000   0.666666666700000   0.950000055692038
%END BLOCK POSITIONS_FRAC
%BLOCK SPECIES_POT
    Al al_HC.lda.recpot                                                                       
%END BLOCK SPECIES_POT
%BLOCK ION_OPTIMIZATION
           0           0           1
           0           0           1
           0           0           1
           0           0           1
           0           0           1
           0           0           1
           0           0           1
           0           0           1
           0           0           1
           0           0           1
           0           0           1
           0           0           1
           0           0           1
           0           0           1
           0           0           1
           0           0           1
           0           0           1
           0           0           1
           0           0           1
           0           0           1
%END BLOCK ION_OPTIMIZATION
