%BLOCK LATTICE_CART
1.923582788712    -3.331743122614    0.000000000000    
1.923582788712    3.331743122614    0.000000000000    
0.000000000000    0.000000000000    6.341911403373    
%END BLOCK LATTICE_CART
%BLOCK POSITIONS_FRAC
Ga    0.666666666667    0.333333333333    0.500054490000
Ga    0.333333333333    0.666666666667    0.000054490000
P    0.666666666667    0.333333333333    0.873945510000
P    0.333333333333    0.666666666667    0.373945510000
%END BLOCK POSITIONS_FRAC
%BLOCK SPECIES_POT
Ga ga.gga.recpot
P p.gga.recpot
%END BLOCK SPECIES_POT
