%BLOCK LATTICE_CART
2.8057997077482204 0 0
0 3.968  0
0 0 22.446397661985763
%END BLOCK LATTICE_CART
%BLOCK POSITIONS_FRAC
Al 0.000000000000    0.000000000000    0.000000000000
Al 0.500000000000    0.500000000000    0.062500000000
Al 0.000000000000    0.000000000000    0.125000000000
Al 0.500000000000    0.500000000000    0.187500000000
Al 0.000000000000    0.000000000000    0.250000000000
Al 0.500000000000    0.500000000000    0.312500000000
Al 0.000000000000    0.000000000000    0.375000000000
Al 0.500000000000    0.500000000000    0.437500000000
Al 0.000000000000    0.000000000000    0.500000000000
%END BLOCK POSITIONS_FRAC
%BLOCK SPECIES_POT
Al al_HC.lda.recpot
%END BLOCK SPECIES_POT

