ATOMIC_SPECIES
Al 27 al.lda.lps

LATTICE_CONSTANT
7.50241114482

LATTICE_VECTORS
0.707106781187 0 0 #latvec1
0.353553390593 0.612372435696 0 #latvec2
0 0 11.5470053838 #latvec3

ATOMIC_POSITIONS
Direct

Al #label
0 #magnetism
20 #number of atoms
0 0 6.56936029535e-05 0 0 1 0 0 0
0.333333333332 0.333333333332 0.0498888869089 0 0 1 0 0 0
0.666666666668 0.666666666668 0.100037298822 0 0 1 0 0 0
0 0 0.149985947285 0 0 1 0 0 0
0.333333333332 0.333333333332 0.199493744375 0 0 1 0 0 0
0.833333333332 0.833333333332 0.250536601692 0 0 1 0 0 0
0.166666666668 0.166666666668 0.299995322127 0 0 1 0 0 0
0.5 0.5 0.350061058022 0 0 1 0 0 0
0.833333333332 0.833333333332 0.399914757065 0 0 1 0 0 0
0.166666666668 0.166666666668 0.449990357774 0 0 1 0 0 0
0.833333333332 0.833333333332 0.500071535624 0 0 1 0 0 0
0.5 0.5 0.549933469443 0 0 1 0 0 0
0.166666666668 0.166666666668 0.600012478649 0 0 1 0 0 0
0.833333333332 0.833333333332 0.64947763497 0 0 1 0 0 0
0.333333333332 0.333333333332 0.700524082822 0 0 1 0 0 0
0 0 0.750030324051 0 0 1 0 0 0
0.666666666668 0.666666666668 0.799966002482 0 0 1 0 0 0
0.333333333332 0.333333333332 0.850105805939 0 0 1 0 0 0
0 0 0.899918154581 0 0 1 0 0 0
0.666666666668 0.666666666668 0.949990843765 0 0 1 0 0 0
