%BLOCK LATTICE_CART
   2.805799707700000   0.000000000000000   0.000000000000000
   1.402899853850000   2.429893824799152   0.000000000000000
   0.000000000000003   0.000000000000002  46.247856904904928
%END BLOCK LATTICE_CART
%BLOCK POSITIONS_FRAC
    Al   1.000000000000000   1.000000000000000   0.000429237480608
    Al   0.333333333300000   0.333333333300000   0.050281318087030
    Al   0.666666666700000   0.666666666700000   0.100158148705350
    Al   0.000000000000000   0.000000000000000   0.150050630353540
    Al   0.333333333300000   0.333333333300000   0.200000030619757
    Al   0.666666666700000   0.666666666700000   0.249949468229060
    Al   0.000000000000000   0.000000000000000   0.299841993390880
    Al   0.333333333300000   0.333333333300000   0.349718780553613
    Al   0.666666666700000   0.666666666700000   0.399570757356338
    Al   0.000000000000000   0.000000000000000   0.449999828033389
    Al   0.666666666700000   0.666666666700000   0.500428956317625
    Al   0.333333333300000   0.333333333300000   0.550281037015748
    Al   1.000000000000000   1.000000000000000   0.600157898408686
    Al   0.666666666700000   0.666666666700000   0.650050431630697
    Al   0.333333333300000   0.333333333300000   0.699999908447115
    Al   0.000000000000000   0.000000000000000   0.749949428691065
    Al   0.666666666700000   0.666666666700000   0.799842047456343
    Al   0.333333333300000   0.333333333300000   0.849718914331276
    Al   0.000000000000000   0.000000000000000   0.899570962331888
    Al   0.666666666700000   0.666666666700000   0.950000083504595
%END BLOCK POSITIONS_FRAC
%BLOCK SPECIES_POT
    Al al_HC.lda.recpot                                                                       
%END BLOCK SPECIES_POT
%BLOCK ION_OPTIMIZATION
           0           0           1
           0           0           1
           0           0           1
           0           0           1
           0           0           1
           0           0           1
           0           0           1
           0           0           1
           0           0           1
           0           0           1
           0           0           1
           0           0           1
           0           0           1
           0           0           1
           0           0           1
           0           0           1
           0           0           1
           0           0           1
           0           0           1
           0           0           1
%END BLOCK ION_OPTIMIZATION
