%BLOCK LATTICE_CART
-1.624531325435    1.624531325435    1.624531325435    
1.624531325435    -1.624531325435    1.624531325435    
1.624531325435    1.624531325435    -1.624531325435    
%END BLOCK LATTICE_CART
%BLOCK POSITIONS_FRAC
Al    0.000000000000    0.000000000000    0.000000000000
%END BLOCK POSITIONS_FRAC
%BLOCK SPECIES_POT
Al al.gga.recpot
%END BLOCK SPECIES_POT
