%BLOCK LATTICE_CART
   2.805799707700000   0.000000000000000   0.000000000000000
   1.402899853850000   2.429893824799152   0.000000000000000
   0.000000000000003   0.000000000000002  46.269185752074591
%END BLOCK LATTICE_CART
%BLOCK POSITIONS_FRAC
    Al   0.000000000000000   0.000000000000000   0.000411444154211
    Al   0.333333333300000   0.333333333300000   0.050236038769491
    Al   0.666666666700000   0.666666666700000   0.100093312429410
    Al   0.000000000000000   0.000000000000000   0.149963378900191
    Al   0.333333333300000   0.333333333300000   0.199906983335638
    Al   0.700000000000000   0.700000000000000   0.250043953098377
    Al   0.033333333300000   0.033333333300000   0.299934731460388
    Al   0.366666666700000   0.366666666700000   0.349790109488173
    Al   0.700000000000000   0.700000000000000   0.399605116176209
    Al   0.033333333300000   0.033333333300000   0.449999168557092
    Al   0.700000000000000   0.700000000000000   0.500393346500646
    Al   0.366666666700000   0.366666666700000   0.550208650988811
    Al   0.033333333300000   0.033333333300000   0.600064389636859
    Al   0.700000000000000   0.700000000000000   0.649955530329767
    Al   0.333333333300000   0.333333333300000   0.700092937462201
    Al   0.000000000000000   0.000000000000000   0.750037070685041
    Al   0.666666666700000   0.666666666700000   0.799907649680177
    Al   0.333333333300000   0.333333333300000   0.849765259729894
    Al   0.000000000000000   0.000000000000000   0.899589990224969
    Al   0.666666666700000   0.666666666700000   0.950000737695985
%END BLOCK POSITIONS_FRAC
%BLOCK SPECIES_POT
    Al al_HC.lda.recpot                                                                       
%END BLOCK SPECIES_POT
%BLOCK ION_OPTIMIZATION
           0           0           1
           0           0           1
           0           0           1
           0           0           1
           0           0           1
           0           0           1
           0           0           1
           0           0           1
           0           0           1
           0           0           1
           0           0           1
           0           0           1
           0           0           1
           0           0           1
           0           0           1
           0           0           1
           0           0           1
           0           0           1
           0           0           1
           0           0           1
%END BLOCK ION_OPTIMIZATION
