INPUT_PARAMETERS
#Parameters (1.General)
suffix			oftest
calculation     scf
esolver_type    ofdft
ntype			2
symmetry		1
pseudo_dir      /home/xianyuer/data/1_sunliang/2_software/PP_ORB/BLPSLibrary-master/GGA/real
# pseudo_dir      /home/mhchen_pkuhpc/mhchen_coe/lustre2/1_sunliang/2_software/PROFESS3.0/BLPSLibrary-master/GGA/real/
pseudo_rcut     16

#Parameters (2.Iteration)
ecutwfc			60
scf_nmax        200
dft_functional  XC_GGA_X_PBE+XC_GGA_C_PBE


#OFDFT
#of_kinetic     tf
#of_kinetic     vw
of_kinetic      tf+
of_vw_weight    0.2
of_method       tn
of_conv         energy
of_tole         2e-6
of_full_pw      1
of_full_pw_dim  1

#Parameters (3.Basis)
basis_type		pw
