ATOMIC_SPECIES
Ga 31 ga.gga.psp blps
Sb 51 sb.gga.psp blps

LATTICE_CONSTANT
11.578555703958797  // add lattice constant

LATTICE_VECTORS
0.000000000000    0.500000000000    0.500000000000    
0.500000000000    0.000000000000    0.500000000000    
0.500000000000    0.500000000000    0.000000000000    

ATOMIC_POSITIONS
Direct

Ga
0.0
1
    0.000000000000    0.000000000000    0.000000000000 1 1 1
Sb
0.0
1
    0.250000000000    0.250000000000    0.250000000000 1 1 1
