%BLOCK LATTICE_CART
   2.806843720900000   0.000000000000000   0.000000000000000
   1.403421860450000   2.430797966752238   0.000000000000000
   0.000000000000003   0.000000000000002  46.011600530931553
%END BLOCK LATTICE_CART
%BLOCK POSITIONS_FRAC
    Al   0.000000000000000   0.000000000000000   0.000319604639782
    Al   0.333333333300000   0.333333333300000   0.050032328245500
    Al   0.666666666700000   0.666666666700000   0.099756657711756
    Al   0.000000000000000   0.000000000000000   0.149601523406086
    Al   0.333333333300000   0.333333333300000   0.199183373341439
    Al   0.766666666700000   0.766666666700000   0.250697593904092
    Al   0.100000000000000   0.100000000000000   0.300245422102953
    Al   0.433333333300000   0.433333333300000   0.350113543059577
    Al   0.766666666700000   0.766666666700000   0.399722542866743
    Al   0.100000000000000   0.100000000000000   0.449999934195642
    Al   0.766666666700000   0.766666666700000   0.500277374375019
    Al   0.433333333300000   0.433333333300000   0.549886443357354
    Al   0.100000000000000   0.100000000000000   0.599754556437982
    Al   0.766666666700000   0.766666666700000   0.649302316495057
    Al   0.333333333300000   0.333333333300000   0.700816546155238
    Al   0.000000000000000   0.000000000000000   0.750398407669884
    Al   0.666666666700000   0.666666666700000   0.800243354895138
    Al   0.333333333300000   0.333333333300000   0.849967698649326
    Al   0.000000000000000   0.000000000000000   0.899680351451323
    Al   0.666666666700000   0.666666666700000   0.949999955160211
%END BLOCK POSITIONS_FRAC
%BLOCK SPECIES_POT
    Al al.lda.recpot                                                                          
%END BLOCK SPECIES_POT
%BLOCK ION_OPTIMIZATION
           0           0           1
           0           0           1
           0           0           1
           0           0           1
           0           0           1
           0           0           1
           0           0           1
           0           0           1
           0           0           1
           0           0           1
           0           0           1
           0           0           1
           0           0           1
           0           0           1
           0           0           1
           0           0           1
           0           0           1
           0           0           1
           0           0           1
           0           0           1
%END BLOCK ION_OPTIMIZATION
