%BLOCK LATTICE_CART
   2.805799707700000   0.000000000000000   0.000000000000000
   1.402899853850000   2.429893824799152   0.000000000000000
   0.000000000000003   0.000000000000002  45.876492235066131
%END BLOCK LATTICE_CART
%BLOCK POSITIONS_FRAC
    Al   0.000000000000000   0.000000000000000   0.000144217096097
    Al   0.333333333300000   0.333333333300000   0.050069275239834
    Al   0.666666666700000   0.666666666700000   0.099972055548367
    Al   0.000000000000000   0.000000000000000   0.149923996854300
    Al   0.333333333300000   0.333333333300000   0.199913291812989
    Al   0.700000000000000   0.700000000000000   0.250109716382937
    Al   0.033333333300000   0.033333333300000   0.300061974547951
    Al   0.366666666700000   0.366666666700000   0.349953235727482
    Al   0.700000000000000   0.700000000000000   0.399855229139207
    Al   0.033333333300000   0.033333333300000   0.449999984916319
    Al   0.700000000000000   0.700000000000000   0.500144770963582
    Al   0.366666666700000   0.366666666700000   0.550046798697342
    Al   0.033333333300000   0.033333333300000   0.599938055691701
    Al   0.700000000000000   0.700000000000000   0.649890271414039
    Al   0.333333333300000   0.333333333300000   0.700086672213296
    Al   1.000000000000000   1.000000000000000   0.750075991489596
    Al   0.666666666700000   0.666666666700000   0.800027976016283
    Al   0.333333333300000   0.333333333300000   0.849930759722346
    Al   0.000000000000000   0.000000000000000   0.899855783502039
    Al   0.666666666700000   0.666666666700000   0.949999985158487
%END BLOCK POSITIONS_FRAC
%BLOCK SPECIES_POT
    Al al_HC.lda.recpot                                                                       
%END BLOCK SPECIES_POT
%BLOCK ION_OPTIMIZATION
           0           0           1
           0           0           1
           0           0           1
           0           0           1
           0           0           1
           0           0           1
           0           0           1
           0           0           1
           0           0           1
           0           0           1
           0           0           1
           0           0           1
           0           0           1
           0           0           1
           0           0           1
           0           0           1
           0           0           1
           0           0           1
           0           0           1
           0           0           1
%END BLOCK ION_OPTIMIZATION
