ATOMIC_SPECIES
Li 6.941 li.gga.psp.1 blps
Mg 24.305 mg.gga.psp blps

LATTICE_CONSTANT
1.8897259885789233  // add lattice constant

LATTICE_VECTORS
1.573086795504    -2.724666254528    0.000000000000    
1.573086795504    2.724666254528    0.000000000000    
0.000000000000    0.000000000000    10.121600430000    

ATOMIC_POSITIONS
Direct

Li
0.0
1
    0.666666666667    0.333333333333    0.500000000000 1 1 1
Mg
0.0
3
    0.666666666667    0.333333333333    0.000000000000 1 1 1
    0.000000000000    0.000000000000    0.742565100000 1 1 1
    0.000000000000    0.000000000000    0.257434900000 1 1 1
