ATOMIC_SPECIES
Al 26.981539 al.lda.lps

LATTICE_CONSTANT
7.50241114482312  // add lattice constant

LATTICE_VECTORS
0.707106781187    0.000000000000    0.000000000000    
0.353553390593    0.612372435696    0.000000000000    
0.000000000000    0.000000000000    12.701705922171765

ATOMIC_POSITIONS
Direct

Al
0.0
22
    -5.3967502810E-31 -6.0637726181E-31  1.5698653246E-04 1 1 1
     3.3333333330E-01  3.3333333330E-01  4.5366190344E-02 1 1 1
     6.6666666670E-01  6.6666666670E-01  9.0913422561E-02 1 1 1
    -5.2637992968E-31 -5.9308216339E-31  1.3615915099E-01 1 1 1
     3.3333333330E-01  3.3333333330E-01  1.8178330252E-01 1 1 1
    -5.2599886490E-31 -5.9270109860E-31  2.2724706548E-01 1 1 1
     6.3333333330E-01  6.3333333330E-01  2.7285005570E-01 1 1 1
     9.6666666670E-01  9.6666666670E-01  3.1838616817E-01 1 1 1
     3.0000000000E-01  3.0000000000E-01  3.6367301987E-01 1 1 1
     6.3333333330E-01  6.3333333330E-01  4.0895816897E-01 1 1 1
     9.6666666670E-01  9.6666666670E-01  4.5454545455E-01 1 1 1
     6.3333333330E-01  6.3333333330E-01  5.0013274013E-01 1 1 1
     3.0000000000E-01  3.0000000000E-01  5.4541788923E-01 1 1 1
     9.6666666670E-01  9.6666666670E-01  5.9070474093E-01 1 1 1
     6.3333333330E-01  6.3333333330E-01  6.3624085340E-01 1 1 1
    -5.2599886490E-31 -5.9270109860E-31  6.8184384362E-01 1 1 1
     3.3333333330E-01  3.3333333330E-01  7.2730760658E-01 1 1 1
    -5.2637992968E-31 -5.9308216339E-31  7.7293175811E-01 1 1 1
     6.6666666670E-01  6.6666666670E-01  8.1817748654E-01 1 1 1
     3.3333333330E-01  3.3333333330E-01  8.6372471876E-01 1 1 1
    -5.3967502810E-31 -6.0637726181E-31  9.0893392257E-01 1 1 1
     6.6666666670E-01  6.6666666670E-01  9.5454545455E-01 1 1 1
