%BLOCK LATTICE_CART
   2.805799707700000   0.000000000000000   0.000000000000000
   1.402899853850000   2.429893824799152   0.000000000000000
   0.000000000000003   0.000000000000002  45.994864362880428
%END BLOCK LATTICE_CART
%BLOCK POSITIONS_FRAC
    Al   0.000000000000000   0.000000000000000   0.000038024692502
    Al   0.333333333300000   0.333333333300000   0.049833168958584
    Al   0.666666666700000   0.666666666700000   0.099560316218123
    Al   0.000000000000000   0.000000000000000   0.149324317551318
    Al   0.333333333300000   0.333333333300000   0.199354225521710
    Al   0.900000000000000   0.900000000000000   0.250648350997704
    Al   0.233333333300000   0.233333333300000   0.300629108965206
    Al   0.566666666700000   0.566666666700000   0.350317469482785
    Al   0.900000000000000   0.900000000000000   0.400020408513294
    Al   0.233333333300000   0.233333333300000   0.449999523241002
    Al   0.900000000000000   0.900000000000000   0.499978711443768
    Al   0.566666666700000   0.566666666700000   0.549681802331491
    Al   0.233333333300000   0.233333333300000   0.599370348142673
    Al   0.900000000000000   0.900000000000000   0.649351331996651
    Al   0.333333333300000   0.333333333300000   0.700645732891871
    Al   1.000000000000000   1.000000000000000   0.750675949906493
    Al   0.666666666700000   0.666666666700000   0.800440261250534
    Al   0.333333333300000   0.333333333300000   0.850167645112127
    Al   0.000000000000000   0.000000000000000   0.899962905106557
    Al   0.666666666700000   0.666666666700000   0.950000474754761
%END BLOCK POSITIONS_FRAC
%BLOCK SPECIES_POT
    Al al_HC.lda.recpot                                                                       
%END BLOCK SPECIES_POT
%BLOCK ION_OPTIMIZATION
           0           0           1
           0           0           1
           0           0           1
           0           0           1
           0           0           1
           0           0           1
           0           0           1
           0           0           1
           0           0           1
           0           0           1
           0           0           1
           0           0           1
           0           0           1
           0           0           1
           0           0           1
           0           0           1
           0           0           1
           0           0           1
           0           0           1
           0           0           1
%END BLOCK ION_OPTIMIZATION
