ATOMIC_SPECIES
Li 6.941 li.gga.psp.1 blps

LATTICE_CONSTANT
1.8897259885789233  // add lattice constant

LATTICE_VECTORS
-1.691663811964    1.691663811964    1.691663811964    
1.691663811964    -1.691663811964    1.691663811964    
1.691663811964    1.691663811964    -1.691663811964    

ATOMIC_POSITIONS
Direct

Li
0.0
1
    0.000000000000    0.000000000000    0.000000000000 1 1 1
