%BLOCK LATTICE_CART
2.926534148720    0.000000000000    0.000000000000    
-1.463267074360    2.534452917834    0.000000000000    
0.000000000000    0.000000000000    4.802218808026    
%END BLOCK LATTICE_CART
%BLOCK POSITIONS_FRAC
Al    0.000000000000    0.000000000000    0.000000000000
Al    0.666666666667    0.333333333333    0.500000000000
%END BLOCK POSITIONS_FRAC
%BLOCK SPECIES_POT
Al al.gga.recpot
%END BLOCK SPECIES_POT
