%BLOCK LATTICE_CART
   4.354913142046369   0.000000633309384   0.000001040656431
   0.000000633309392   4.354913666412151   0.000000119092291
   0.000001040656447   0.000000119092291   4.354913666417342
%END BLOCK LATTICE_CART
%BLOCK POSITIONS_FRAC
    Al   0.000000000000000   0.000000000000000   0.000000000000000
    Mg   0.000000000000000   0.500000000000000   0.500000000000000
    Mg   0.500000000000000   0.500000000000000   0.000000000000000
    Mg   0.500000000000000   0.000000000000000   0.500000000000000
%END BLOCK POSITIONS_FRAC
%BLOCK SPECIES_POT
    Al al.lda.recpot                                                                          
    Mg mg.lda.recpot                                                                          
%END BLOCK SPECIES_POT
