ATOMIC_SPECIES
Al 27 al.lda.lps

LATTICE_CONSTANT
7.50241114482

LATTICE_VECTORS
0.707106781187 0 0 #latvec1
0.353553390593 0.612372435696 0 #latvec2
0 0 11.5470053838 #latvec3

ATOMIC_POSITIONS
Direct

Al #label
0 #magnetism
20 #number of atoms
0  0  0.999731141312  m  0  0  1
0.333333333332  0.333333333332  0.0493619588924  m  0  0  1
0.666666666668  0.666666666668  0.0995239686206  m  0  0  1
0  0  0.149607363048  m  0  0  1
0.333333333332  0.333333333332  0.199737336664  m  0  0  1
0.700000000001  0.700000000001  0.250060947069  m  0  0  1
0.0333333333328  0.0333333333328  0.300180368274  m  0  0  1
0.366666666667  0.366666666667  0.350385215845  m  0  0  1
0.700000000001  0.700000000001  0.400145407904  m  0  0  1
0.0333333333328  0.0333333333328  0.450091982548  m  0  0  1
0.700000000001  0.700000000001  0.500005561168  m  0  0  1
0.366666666667  0.366666666667  0.549716376362  m  0  0  1
0.0333333333328  0.0333333333328  0.599890848981  m  0  0  1
0.700000000001  0.700000000001  0.649983262862  m  0  0  1
0.333333333332  0.333333333332  0.700244876218  m  0  0  1
0  0  0.750324130097  m  0  0  1
0.666666666668  0.666666666668  0.800388799339  m  0  0  1
0.333333333332  0.333333333332  0.850528864439  m  0  0  1
0  0  0.900147587447  m  0  0  1
0.666666666668  0.666666666668  0.949944002909  m  0  0  1
