ATOMIC_SPECIES
Al 26.981539 al.lda.lps

LATTICE_CONSTANT
7.50241114482312  // add lattice constant

LATTICE_VECTORS
0.707106781187    0.000000000000    0.000000000000    
0.353553390593    0.612372435696    0.000000000000    
0.000000000000    0.000000000000    11.547005383793    

ATOMIC_POSITIONS
Direct

Al
0.0
20
    0.000000000000    0.000000000000    0.000000000000 0 0 1
    0.333333333333    0.333333333333    0.050000000000 0 0 1
    0.666666666667    0.666666666667    0.100000000000 0 0 1
    0.000000000000    0.000000000000    0.150000000000 0 0 1
    0.333333333333    0.333333333333    0.200000000000 0 0 1
    0.666666666667    0.666666666667    0.250000000000 0 0 1
    0.000000000000    0.000000000000    0.300000000000 0 0 1
    0.333333333333    0.333333333333    0.350000000000 0 0 1
    0.666666666667    0.666666666667    0.400000000000 0 0 1
    0.000000000000    0.000000000000    0.450000000000 0 0 1
    0.666666666667    0.666666666667    0.500000000000 0 0 1
    0.333333333333    0.333333333333    0.550000000000 0 0 1
    0.000000000000    0.000000000000    0.600000000000 0 0 1
    0.666666666667    0.666666666667    0.650000000000 0 0 1
    0.333333333333    0.333333333333    0.700000000000 0 0 1
    0.000000000000    0.000000000000    0.750000000000 0 0 1
    0.666666666667    0.666666666667    0.800000000000 0 0 1
    0.333333333333    0.333333333333    0.850000000000 0 0 1
    0.000000000000    0.000000000000    0.900000000000 0 0 1
    0.666666666667    0.666666666667    0.950000000000 0 0 1
