%BLOCK LATTICE_CART
   2.788750490549239  -0.000079222385175  -0.000000107323453
  -1.394443875819722   2.415089196271700   0.000000064933867
  -0.000000085217626   0.000000033897322   4.672575302989505
%END BLOCK LATTICE_CART
%BLOCK POSITIONS_FRAC
    Al   0.000000000000000   0.000000000000000   0.000000000000000
    Al   0.666666666667000   0.333333333333000   0.500000000000000
%END BLOCK POSITIONS_FRAC
%BLOCK SPECIES_POT
    Al al.lda.recpot                                                                          
%END BLOCK SPECIES_POT
