ATOMIC_SPECIES
In 49 in.gga.psp blps
P 15 p.gga.psp blps

LATTICE_CONSTANT
10.333005688552387  // add lattice constant

LATTICE_VECTORS
0.000000000000    0.500000000000    0.500000000000    
0.500000000000    0.000000000000    0.500000000000    
0.500000000000    0.500000000000    0.000000000000    

ATOMIC_POSITIONS
Direct

In
0.0
1
    0.000000000000    0.000000000000    0.000000000000 1 1 1
P
0.0
1
    0.250000000000    0.250000000000    0.250000000000 1 1 1
