%BLOCK LATTICE_CART
   2.833725690800000   0.000000000000000   0.000000000000000
   1.416862845400000   2.454078435589407   0.000000000000000
   0.000000000000003   0.000000000000002  51.014471524681987
%END BLOCK LATTICE_CART
%BLOCK POSITIONS_FRAC
    Al   0.000000000000000   0.000000000000000   0.999900995358979
    Al   0.333333333300000   0.333333333300000   0.045310751170710
    Al   0.666666666700000   0.666666666700000   0.090728750035869
    Al   0.000000000000000   0.000000000000000   0.136149431505367
    Al   0.333333333300000   0.333333333300000   0.181511000348323
    Al   0.000000000000000   0.000000000000000   0.226838568030347
    Al   0.433333333300000   0.433333333300000   0.273094366718455
    Al   0.766666666700000   0.766666666700000   0.318489593474578
    Al   0.100000000000000   0.100000000000000   0.363870398107290
    Al   0.433333333300000   0.433333333300000   0.409236560533117
    Al   0.766666666700000   0.766666666700000   0.454544538490861
    Al   0.433333333300000   0.433333333300000   0.499852615514468
    Al   0.100000000000000   0.100000000000000   0.545219049784850
    Al   0.766666666700000   0.766666666700000   0.590600253803159
    Al   0.433333333300000   0.433333333300000   0.635995954818925
    Al   1.000000000000000   1.000000000000000   0.682252235793362
    Al   0.333333333300000   0.333333333300000   0.727580307877354
    Al   1.000000000000000   1.000000000000000   0.772942302635016
    Al   0.666666666700000   0.666666666700000   0.818363318116986
    Al   0.333333333300000   0.333333333300000   0.863781540511787
    Al   0.000000000000000   0.000000000000000   0.909191424936783
    Al   0.666666666700000   0.666666666700000   0.954546227957915
%END BLOCK POSITIONS_FRAC
%BLOCK SPECIES_POT
    Al al.lda.recpot                                                                          
%END BLOCK SPECIES_POT
%BLOCK ION_OPTIMIZATION
           0           0           1
           0           0           1
           0           0           1
           0           0           1
           0           0           1
           0           0           1
           0           0           1
           0           0           1
           0           0           1
           0           0           1
           0           0           1
           0           0           1
           0           0           1
           0           0           1
           0           0           1
           0           0           1
           0           0           1
           0           0           1
           0           0           1
           0           0           1
           0           0           1
           0           0           1
%END BLOCK ION_OPTIMIZATION
