%BLOCK LATTICE_CART
2.763318058267    0.000000000000    0.000000000000    
-1.381659029133    2.393103637195    0.000000000000    
0.000000000000    0.000000000000    4.401156812149    
%END BLOCK LATTICE_CART
%BLOCK POSITIONS_FRAC
Si    0.000000000000    0.000000000000    0.000000000000
Si    0.666666666667    0.333333333333    0.500000000000
%END BLOCK POSITIONS_FRAC
%BLOCK SPECIES_POT
Si si.gga.recpot
%END BLOCK SPECIES_POT
