ATOMIC_SPECIES
Al 26.981539 Al_ONCV_PBE-1.2.upf

LATTICE_CONSTANT
7.4984327225523  // add lattice constant

LATTICE_VECTORS
0.707106781187    0.000000000000    0.000000000000    
0.353553390593    0.612372435696    0.000000000000    
0.000000000000    0.000000000000    12.701705922171765  

ATOMIC_POSITIONS
Direct

Al
0.0
22
    -1.6909298182E-30 -1.7576320519E-30  1.1074738133E-04 1 1 1
     3.3333333330E-01  3.3333333330E-01  4.5273224144E-02 1 1 1
     6.6666666670E-01  6.6666666670E-01  9.0741141483E-02 1 1 1
    -1.6776347198E-30 -1.7443369535E-30  1.3586866874E-01 1 1 1
     3.3333333330E-01  3.3333333330E-01  1.8138325539E-01 1 1 1
    -1.6772536550E-30 -1.7439558887E-30  2.2685906371E-01 1 1 1
     5.0000000000E-01  5.0000000000E-01  2.7338660770E-01 1 1 1
     8.3333333330E-01  8.3333333330E-01  3.1864059410E-01 1 1 1
     1.6666666670E-01  1.6666666670E-01  3.6393281551E-01 1 1 1
     5.0000000000E-01  5.0000000000E-01  4.0904470936E-01 1 1 1
     8.3333333330E-01  8.3333333330E-01  4.5454545455E-01 1 1 1
     5.0000000000E-01  5.0000000000E-01  5.0004619974E-01 1 1 1
     1.6666666670E-01  1.6666666670E-01  5.4515809359E-01 1 1 1
     8.3333333330E-01  8.3333333330E-01  5.9045031500E-01 1 1 1
     5.0000000000E-01  5.0000000000E-01  6.3570430140E-01 1 1 1
    -1.6772536550E-30 -1.7439558887E-30  6.8223184539E-01 1 1 1
     3.3333333330E-01  3.3333333330E-01  7.2770765371E-01 1 1 1
    -1.6776347198E-30 -1.7443369535E-30  7.7322224036E-01 1 1 1
     6.6666666670E-01  6.6666666670E-01  8.1834976762E-01 1 1 1
     3.3333333330E-01  3.3333333330E-01  8.6381768496E-01 1 1 1
    -1.6909298182E-30 -1.7576320519E-30  9.0898016172E-01 1 1 1
     6.6666666670E-01  6.6666666670E-01  9.5454545455E-01 1 1 1
