%BLOCK LATTICE_CART
0.000000000000    2.128878117563    2.128878117563    
2.128878117563    0.000000000000    2.128878117563    
2.128878117563    2.128878117563    0.000000000000    
%END BLOCK LATTICE_CART
%BLOCK POSITIONS_FRAC
Li    0.000000000000    0.000000000000    0.000000000000
%END BLOCK POSITIONS_FRAC
%BLOCK SPECIES_POT
Li li.lda.recpot
%END BLOCK SPECIES_POT
