%BLOCK LATTICE_CART
   2.751516141731334  -0.006967482962312  -0.000000048054935
  -1.381792081850056   2.379399125567984   0.000000009861482
  -0.000000032209465   0.000000005286424   4.654821876711188
%END BLOCK LATTICE_CART
%BLOCK POSITIONS_FRAC
    Al   0.000000000000000   0.000000000000000   0.000000000000000
    Al   0.666666666667000   0.333333333333000   0.500000000000000
%END BLOCK POSITIONS_FRAC
%BLOCK SPECIES_POT
    Al al.lda.recpot                                                                          
%END BLOCK SPECIES_POT
