%BLOCK LATTICE_CART
3.195101343546    0.000000000000    0.000000000000    
-1.597550671773    2.767038931177    0.000000000000    
0.000000000000    0.000000000000    5.225337604141    
%END BLOCK LATTICE_CART
%BLOCK POSITIONS_FRAC
Mg    0.000000000000    0.000000000000    0.000000000000
Mg    0.666666666667    0.333333333333    0.500000000000
%END BLOCK POSITIONS_FRAC
%BLOCK SPECIES_POT
Mg mg.gga.recpot
%END BLOCK SPECIES_POT
