%BLOCK LATTICE_CART
   2.806843720900000   0.000000000000000   0.000000000000000
   1.403421860450000   2.430797966752238   0.000000000000000
   0.000000000000003   0.000000000000002  50.587700735885491
%END BLOCK LATTICE_CART
%BLOCK POSITIONS_FRAC
    Al   0.000000000000000   0.000000000000000   0.000257337675791
    Al   0.333333333300000   0.333333333300000   0.045390342647782
    Al   0.666666666700000   0.666666666700000   0.090618847924167
    Al   0.000000000000000   0.000000000000000   0.135779901947390
    Al   0.333333333300000   0.333333333300000   0.181415084424896
    Al   0.000000000000000   0.000000000000000   0.227675706966829
    Al   0.333333333300000   0.333333333300000   0.273310900501172
    Al   0.666666666700000   0.666666666700000   0.318471927556700
    Al   0.000000000000000   0.000000000000000   0.363700420966640
    Al   0.333333333300000   0.333333333300000   0.408833445349648
    Al   0.666666666700000   0.666666666700000   0.454543750198290
    Al   0.333333333300000   0.333333333300000   0.500254299529361
    Al   0.000000000000000   0.000000000000000   0.545387759457510
    Al   0.666666666700000   0.666666666700000   0.590616949389433
    Al   0.333333333300000   0.333333333300000   0.635778767817334
    Al   0.000000000000000   0.000000000000000   0.681414814762380
    Al   0.333333333300000   0.333333333300000   0.727676394648142
    Al   0.000000000000000   0.000000000000000   0.773312386588130
    Al   0.666666666700000   0.666666666700000   0.818474138255810
    Al   0.333333333300000   0.333333333300000   0.863703227551517
    Al   0.000000000000000   0.000000000000000   0.908836575556393
    Al   0.666666666700000   0.666666666700000   0.954547055939602
%END BLOCK POSITIONS_FRAC
%BLOCK SPECIES_POT
    Al al.lda.recpot                                                                          
%END BLOCK SPECIES_POT
%BLOCK ION_OPTIMIZATION
           0           0           1
           0           0           1
           0           0           1
           0           0           1
           0           0           1
           0           0           1
           0           0           1
           0           0           1
           0           0           1
           0           0           1
           0           0           1
           0           0           1
           0           0           1
           0           0           1
           0           0           1
           0           0           1
           0           0           1
           0           0           1
           0           0           1
           0           0           1
           0           0           1
           0           0           1
%END BLOCK ION_OPTIMIZATION
