%BLOCK LATTICE_CART
3.940248719519    0.000000000000    0.000000000000    
0.000000000000    3.940248719519    0.000000000000    
0.000000000000    0.000000000000    3.940248719519    
%END BLOCK LATTICE_CART
%BLOCK POSITIONS_FRAC
Al    0.500000000000    0.500000000000    0.000000000000
Al    0.500000000000    0.000000000000    0.500000000000
Al    0.000000000000    0.500000000000    0.500000000000
%END BLOCK POSITIONS_FRAC
%BLOCK SPECIES_POT
Al al.lda.recpot
%END BLOCK SPECIES_POT
