%BLOCK LATTICE_CART
2.162206037979    -3.745050714213    0.000000000000    
2.162206037979    3.745050714213    0.000000000000    
0.000000000000    0.000000000000    7.139392708812    
%END BLOCK LATTICE_CART
%BLOCK POSITIONS_FRAC
Ga    0.666666666667    0.333333333333    0.500683080000
Ga    0.333333333333    0.666666666667    0.000683080000
Sb    0.666666666667    0.333333333333    0.874216920000
Sb    0.333333333333    0.666666666667    0.374216920000
%END BLOCK POSITIONS_FRAC
%BLOCK SPECIES_POT
Ga ga.gga.recpot
Sb sb.gga.recpot
%END BLOCK SPECIES_POT
