%BLOCK LATTICE_CART
   2.806843720900000   0.000000000000000   0.000000000000000
   1.403421860450000   2.430797966752238   0.000000000000000
   0.000000000000003   0.000000000000002  46.049746339920326
%END BLOCK LATTICE_CART
%BLOCK POSITIONS_FRAC
    Al   0.000000000000000   0.000000000000000   0.000215297763570
    Al   0.333333333300000   0.333333333300000   0.049798938939394
    Al   0.666666666700000   0.666666666700000   0.099455103897942
    Al   0.000000000000000   0.000000000000000   0.149143152260985
    Al   0.333333333300000   0.333333333300000   0.199022601129932
    Al   0.933333333300000   0.933333333300000   0.250635278084236
    Al   0.266666666700000   0.266666666700000   0.300499359478695
    Al   0.600000000000000   0.600000000000000   0.350234269689437
    Al   0.933333333300000   0.933333333300000   0.399797769527431
    Al   0.266666666700000   0.266666666700000   0.449999355732636
    Al   0.933333333300000   0.933333333300000   0.500201056709700
    Al   0.600000000000000   0.600000000000000   0.549764770432233
    Al   0.266666666700000   0.266666666700000   0.599499892883258
    Al   0.933333333300000   0.933333333300000   0.649364163792129
    Al   0.333333333300000   0.333333333300000   0.700977191021386
    Al   0.000000000000000   0.000000000000000   0.750856950751875
    Al   0.666666666700000   0.666666666700000   0.800545420946519
    Al   0.333333333300000   0.333333333300000   0.850201916445921
    Al   0.000000000000000   0.000000000000000   0.899785683225665
    Al   0.666666666700000   0.666666666700000   0.950000509442575
%END BLOCK POSITIONS_FRAC
%BLOCK SPECIES_POT
    Al al.lda.recpot                                                                          
%END BLOCK SPECIES_POT
%BLOCK ION_OPTIMIZATION
           0           0           1
           0           0           1
           0           0           1
           0           0           1
           0           0           1
           0           0           1
           0           0           1
           0           0           1
           0           0           1
           0           0           1
           0           0           1
           0           0           1
           0           0           1
           0           0           1
           0           0           1
           0           0           1
           0           0           1
           0           0           1
           0           0           1
           0           0           1
%END BLOCK ION_OPTIMIZATION
