ATOMIC_SPECIES
Al 26.981539 al.lda.lps

LATTICE_CONSTANT
7.50241114482312  // add lattice constant

LATTICE_VECTORS
0.707106781187    0.000000000000    0.000000000000    
0.353553390593    0.612372435696    0.000000000000    
0.000000000000    0.000000000000    12.701705922171765

ATOMIC_POSITIONS
Direct

Al
0.0
22
-1.2423507624E-30 -1.3090529961E-30  1.0622595654E-04 1 1 1
 3.3333333330E-01  3.3333333330E-01  4.5293760826E-02 1 1 1
 6.6666666670E-01  6.6666666670E-01  9.0792482016E-02 1 1 1
-1.2290556640E-30 -1.2957578977E-30  1.3599784379E-01 1 1 1
 3.3333333330E-01  3.3333333330E-01  1.8156163507E-01 1 1 1
-1.2286745992E-30 -1.2953768329E-30  2.2694979748E-01 1 1 1
 5.6666666670E-01  5.6666666670E-01  2.7318013734E-01 1 1 1
 9.0000000000E-01  9.0000000000E-01  3.1857581569E-01 1 1 1
 2.3333333330E-01  2.3333333330E-01  3.6385124093E-01 1 1 1
 5.6666666670E-01  5.6666666670E-01  4.0904456610E-01 1 1 1
 9.0000000000E-01  9.0000000000E-01  4.5454545455E-01 1 1 1
 5.6666666670E-01  5.6666666670E-01  5.0004634300E-01 1 1 1
 2.3333333330E-01  2.3333333330E-01  5.4523966817E-01 1 1 1
 9.0000000000E-01  9.0000000000E-01  5.9051509341E-01 1 1 1
 5.6666666670E-01  5.6666666670E-01  6.3591077176E-01 1 1 1
-1.2286745992E-30 -1.2953768329E-30  6.8214111162E-01 1 1 1
 3.3333333330E-01  3.3333333330E-01  7.2752927403E-01 1 1 1
-1.2290556640E-30 -1.2957578977E-30  7.7309306531E-01 1 1 1
 6.6666666670E-01  6.6666666670E-01  8.1829842708E-01 1 1 1
 3.3333333330E-01  3.3333333330E-01  8.6379714827E-01 1 1 1
-1.2423507624E-30 -1.3090529961E-30  9.0898468314E-01 1 1 1
 6.6666666670E-01  6.6666666670E-01  9.5454545455E-01 1 1 1
 