%BLOCK LATTICE_CART
1.568109896827    -2.716046013157    0.000000000000    
1.568109896827    2.716046013157    0.000000000000    
0.000000000000    0.000000000000    10.117225450000    
%END BLOCK LATTICE_CART
%BLOCK POSITIONS_FRAC
Li    0.666666666667    0.333333333333    0.624385550000
Li    0.333333333333    0.666666666667    0.375614450000
Mg    0.333333333333    0.666666666667    0.870779410000
Mg    0.666666666667    0.333333333333    0.129220590000
%END BLOCK POSITIONS_FRAC
%BLOCK SPECIES_POT
Li li.gga.recpot
Mg mg.gga.recpot
%END BLOCK SPECIES_POT
