ATOMIC_SPECIES
Li 6.941 li.gga.psp.1 blps
Al 26.981 al.gga.psp blps

LATTICE_CONSTANT
1.8897259885789233  // add lattice constant

LATTICE_VECTORS
9.638852000000    0.000000000000    0.000000000000    
0.000000000000    9.638852000000    0.000000000000    
0.000000000000    0.000000000000    9.638852000000    

ATOMIC_POSITIONS
Direct

Li
0.0
32
    0.396553000000    0.896553000000    0.896553000000 1 1 1
    0.103447000000    0.103447000000    0.396553000000 1 1 1
    0.103447000000    0.896553000000    0.603447000000 1 1 1
    0.146553000000    0.146553000000    0.853447000000 1 1 1
    0.353447000000    0.353447000000    0.853447000000 1 1 1
    0.396553000000    0.103447000000    0.103447000000 1 1 1
    0.146553000000    0.353447000000    0.646553000000 1 1 1
    0.353447000000    0.146553000000    0.646553000000 1 1 1
    0.396553000000    0.396553000000    0.396553000000 1 1 1
    0.103447000000    0.603447000000    0.896553000000 1 1 1
    0.103447000000    0.396553000000    0.103447000000 1 1 1
    0.146553000000    0.646553000000    0.353447000000 1 1 1
    0.353447000000    0.853447000000    0.353447000000 1 1 1
    0.396553000000    0.603447000000    0.603447000000 1 1 1
    0.146553000000    0.853447000000    0.146553000000 1 1 1
    0.353447000000    0.646553000000    0.146553000000 1 1 1
    0.896553000000    0.896553000000    0.396553000000 1 1 1
    0.603447000000    0.103447000000    0.896553000000 1 1 1
    0.603447000000    0.896553000000    0.103447000000 1 1 1
    0.646553000000    0.146553000000    0.353447000000 1 1 1
    0.853447000000    0.353447000000    0.353447000000 1 1 1
    0.896553000000    0.103447000000    0.603447000000 1 1 1
    0.646553000000    0.353447000000    0.146553000000 1 1 1
    0.853447000000    0.146553000000    0.146553000000 1 1 1
    0.896553000000    0.396553000000    0.896553000000 1 1 1
    0.603447000000    0.603447000000    0.396553000000 1 1 1
    0.603447000000    0.396553000000    0.603447000000 1 1 1
    0.646553000000    0.646553000000    0.853447000000 1 1 1
    0.853447000000    0.853447000000    0.853447000000 1 1 1
    0.896553000000    0.603447000000    0.103447000000 1 1 1
    0.646553000000    0.853447000000    0.646553000000 1 1 1
    0.853447000000    0.646553000000    0.646553000000 1 1 1
Al
0.0
16
    0.125000000000    0.625000000000    0.625000000000 1 1 1
    0.375000000000    0.875000000000    0.625000000000 1 1 1
    0.375000000000    0.625000000000    0.875000000000 1 1 1
    0.125000000000    0.875000000000    0.875000000000 1 1 1
    0.125000000000    0.125000000000    0.125000000000 1 1 1
    0.375000000000    0.375000000000    0.125000000000 1 1 1
    0.375000000000    0.125000000000    0.375000000000 1 1 1
    0.125000000000    0.375000000000    0.375000000000 1 1 1
    0.625000000000    0.625000000000    0.125000000000 1 1 1
    0.875000000000    0.875000000000    0.125000000000 1 1 1
    0.875000000000    0.625000000000    0.375000000000 1 1 1
    0.625000000000    0.875000000000    0.375000000000 1 1 1
    0.625000000000    0.125000000000    0.625000000000 1 1 1
    0.875000000000    0.375000000000    0.625000000000 1 1 1
    0.875000000000    0.125000000000    0.875000000000 1 1 1
    0.625000000000    0.375000000000    0.875000000000 1 1 1
