ATOMIC_SPECIES
Al 27 al.gga.psp blps

LATTICE_CONSTANT
19.2801183711

LATTICE_VECTORS
1 0 0 #latvec1
0 1 0 #latvec2
0 0 1 #latvec3

ATOMIC_POSITIONS
Direct

Al #label
0 #magnetism
64 #number of atoms
0.0858021562226  0.632104469571  0.253783055793  m  1  1  1  v  0.00258742022094  -0.00380773889332  0.00335527925786
0.162231620406  0.606305756411  0.964439003952  m  1  1  1  v  -0.000292490267757  -0.00136739691384  -0.00123677217193
0.433951165498  0.560502243246  0.451998425325  m  1  1  1  v  -0.00251830883641  -0.00322604997847  0.00740779077405
0.959900341268  0.141949788482  0.878418939135  m  1  1  1  v  -0.00606312349105  0.00303244038541  -0.000234124686313
0.781130240615  0.268030283013  0.422380150191  m  1  1  1  v  0.00299978418581  -4.77596981644e-05  -0.00217425485098
0.307556207726  0.731109609376  0.1324937452  m  1  1  1  v  -0.00273248133411  0.000116544120021  -0.00388401899031
0.0526891152222  0.372803748697  0.707438823583  m  1  1  1  v  0.00218806819941  0.00787956582925  -0.00143201645448
0.759040600211  0.533119219689  0.374689852435  m  1  1  1  v  -0.00151043222912  0.00461412577816  0.000342445972042
0.0967289769204  0.544235438398  0.120898326405  m  1  1  1  v  -0.00247852217845  -0.0043270485075  0.00252738466808
0.187091280762  0.750697411474  0.623783158759  m  1  1  1  v  -0.00411519725607  -0.00221401433176  0.00348833000561
0.304620052352  0.167975274006  0.649011500757  m  1  1  1  v  0.000271129625038  0.00374975511244  0.00248298418267
0.503301178344  0.339545842278  0.64606421129  m  1  1  1  v  -0.0021900083366  -0.00295819571086  0.00421509986063
0.00557050822392  0.420363299587  0.536985180838  m  1  1  1  v  -0.000103719509669  0.00545019177905  -0.000345798651585
0.225842465363  0.921406011326  0.441200542798  m  1  1  1  v  0.000803356467913  -0.00104659755017  -0.00603107905304
0.667093793064  0.0657745943567  0.734919066009  m  1  1  1  v  0.00938228822079  0.00256291534241  0.000593879387876
0.542630166895  0.822484404509  0.92621760417  m  1  1  1  v  -0.0011063135921  -0.00481063958279  -0.00293567633055
0.158516701828  0.0498945290062  0.301279489324  m  1  1  1  v  -0.00123069722083  -0.00681595543794  -0.00571361731939
0.779943094919  0.021625925802  0.770425966898  m  1  1  1  v  -0.000165486790162  -0.00408783261431  -0.000522125037109
0.360498246897  0.230983333693  0.515725181362  m  1  1  1  v  -0.000756598680071  0.00100594588253  0.00369119992332
0.109231087239  0.126919692971  0.424679308267  m  1  1  1  v  0.000484400183455  0.000930669043149  -0.00505511136462
0.35687214552  0.999079362267  0.528172357416  m  1  1  1  v  0.00146211374934  0.00175903471973  0.000521331566772
0.270229077601  0.668337975343  0.488812648335  m  1  1  1  v  0.00277717159878  -0.00418762951813  0.0087381671598
0.90675467497  0.850871137622  0.289226019434  m  1  1  1  v  0.000955229159416  0.000746019019782  0.00819872358045
0.62745847129  0.699356602469  0.805882449685  m  1  1  1  v  -0.00421042402688  -0.00110217848135  -0.000582898082589
0.534042432418  0.685180827418  0.992432096311  m  1  1  1  v  0.00571621996299  -0.00158346983607  0.00813131819975
0.419182104029  0.970071259569  0.329580124381  m  1  1  1  v  0.000917000757103  0.000441653986634  -0.00128679343599
0.105241903286  0.740126666954  0.864288755736  m  1  1  1  v  -0.000367028170554  0.0037597126685  -0.0063979660063
0.372641251119  0.0180057208356  0.074542658306  m  1  1  1  v  0.00271952362277  0.00388275005861  -0.00270761613931
0.83862266328  0.422369285053  0.355989782348  m  1  1  1  v  -0.00161383700831  0.000589318696301  -0.00207692033501
0.919433260718  0.843221279261  0.0944309993054  m  1  1  1  v  0.00348412371096  -0.00101564779711  -0.00257944891397
0.731409125581  0.698218661605  0.93563244295  m  1  1  1  v  0.00294172702271  -0.00612968058432  0.0055108104865
0.678281821013  0.50338304061  0.50423401371  m  1  1  1  v  0.00419858271016  -0.00350225371029  -1.83874219395e-05
0.303403583958  0.289807907  0.383926734847  m  1  1  1  v  -0.000800545820114  0.00793288859321  -0.000226553457811
0.956860410289  0.737512318718  0.585540127285  m  1  1  1  v  0.00066723875691  0.00380981750037  -0.00292602024967
0.787565201915  0.956954365973  0.665248529942  m  1  1  1  v  0.000673278832159  -0.00209009487438  0.00196592587262
0.280522983823  0.855917085401  0.512022988897  m  1  1  1  v  -0.00145157675198  -0.00511427050555  -0.00404436021092
0.0289099088063  0.949388869128  0.427655360469  m  1  1  1  v  0.00107964275339  0.00133983160292  0.00167430827264
0.773784650377  0.373611136055  0.973377879854  m  1  1  1  v  -0.00126483914301  -0.00346239826898  0.00454434515395
0.259462976435  0.538182562535  0.782779984968  m  1  1  1  v  0.0022251605955  0.00158571367462  0.00381599768271
0.531826594554  0.453290782695  0.309607114784  m  1  1  1  v  -0.00618797789147  0.000129343911568  0.00077091016517
0.753550181535  0.109682619764  0.542495628528  m  1  1  1  v  0.00294182206971  -0.00217419611978  -0.00173379317818
0.385152544516  0.455281022071  0.76869133705  m  1  1  1  v  -0.000137205998228  -0.00316823291046  0.000238624927223
0.467326676052  0.976445887694  0.844744637533  m  1  1  1  v  0.0125394388953  -0.00421475305136  -0.000236294608994
0.513567571361  0.985956590254  0.535570832984  m  1  1  1  v  -0.002204638922  -0.00378379447396  -0.00612721138917
0.363396804647  0.565763762721  0.150986112354  m  1  1  1  v  -0.000156998324945  0.00151651552792  -0.00183658084564
0.69438896798  0.386527267621  0.120563701696  m  1  1  1  v  -0.0006927823966  0.000271617561173  0.000905799130132
0.466900746119  0.737949320824  0.290391190816  m  1  1  1  v  0.000585087973136  0.00271098409969  0.00134442007803
0.0532638046806  0.0591062692826  0.987550561071  m  1  1  1  v  -0.000369564600354  0.00462490463774  0.000413037665314
0.188055171211  0.525683735217  0.243086657537  m  1  1  1  v  0.00362354816619  0.00530558895796  0.00204965116478
0.121135581902  0.210067047003  0.55266903075  m  1  1  1  v  -0.00299736541336  -0.00134989408112  -0.00383262207415
0.951468408799  0.416075906312  0.661619189013  m  1  1  1  v  -0.00394456346813  -0.000780230441326  0.00389967601076
0.938255677116  0.948454292474  0.803560198162  m  1  1  1  v  0.00197003217502  0.00473056596424  -0.00159055543861
0.697892517976  0.244861953972  0.735934835217  m  1  1  1  v  -0.00144646900214  -0.000868582556603  0.00155251965695
0.120911194272  0.445824655747  0.919219300993  m  1  1  1  v  -0.0031687551176  0.00212464855015  -0.00105538344884
0.248468794733  0.823486169426  0.962249147414  m  1  1  1  v  4.04927821764e-05  -0.00380305776868  0.00631262881867
0.0818255574856  0.239855487793  0.837221209791  m  1  1  1  v  -0.00336048813014  0.00637943727551  6.78608971431e-05
0.344005264985  0.844144312324  0.866356679174  m  1  1  1  v  -0.000355934454436  -0.00181882148043  0.00213247119642
0.443555310057  0.183810143187  0.0268805172372  m  1  1  1  v  -0.000186763210137  -0.00330482091032  -0.00317660547493
0.0883881417682  0.346688861251  0.435753876845  m  1  1  1  v  -0.00488735504841  0.00540443536818  -0.000930725115462
0.720243258485  0.107601676396  0.883901142346  m  1  1  1  v  0.000908637535561  -0.00122505626735  -0.00506890761332
0.811307781103  0.778861894003  0.694637966251  m  1  1  1  v  0.00209985497443  -0.00119910593566  -0.00793622673442
0.518128264858  0.622754377563  0.343809367651  m  1  1  1  v  -0.000637974618651  -0.000778136095726  -0.00486603546323
0.0847337012367  0.764542996663  0.186767297724  m  1  1  1  v  -0.00614879467258  0.00260592333005  0.00363589186032
0.778203836167  0.659856028034  0.825124980409  m  1  1  1  v  -0.00138711299467  0.000372675910765  -0.00372631302948
