ATOMIC_SPECIES
Li 6.941 li.gga.psp.1 blps
Mg 24.305 mg.gga.psp blps

LATTICE_CONSTANT
1.8897259885789233  // add lattice constant

LATTICE_VECTORS
1.568109896827    -2.716046013157    0.000000000000    
1.568109896827    2.716046013157    0.000000000000    
0.000000000000    0.000000000000    10.117225450000    

ATOMIC_POSITIONS
Direct

Li
0.0
2
    0.666666666667    0.333333333333    0.624385550000 1 1 1
    0.333333333333    0.666666666667    0.375614450000 1 1 1
Mg
0.0
2
    0.333333333333    0.666666666667    0.870779410000 1 1 1
    0.666666666667    0.333333333333    0.129220590000 1 1 1
