ATOMIC_SPECIES
Si 14 si.gga.psp blps

LATTICE_CONSTANT
12.61240809405178  // add lattice constant

LATTICE_VECTORS
1.000000000000    0.000000000000    0.000000000000    
0.000000000000    1.000000000000    0.000000000000    
0.000000000000    0.000000000000    1.000000000000    

ATOMIC_POSITIONS
Direct

Si
0.0
16
    0.148443000000    0.851557000000    0.351557000000 1 1 1
    0.851557000000    0.648443000000    0.351557000000 1 1 1
    0.351557000000    0.851557000000    0.648443000000 1 1 1
    0.648443000000    0.648443000000    0.648443000000 1 1 1
    0.851557000000    0.148443000000    0.648443000000 1 1 1
    0.648443000000    0.851557000000    0.148443000000 1 1 1
    0.648443000000    0.148443000000    0.351557000000 1 1 1
    0.351557000000    0.351557000000    0.351557000000 1 1 1
    0.648443000000    0.351557000000    0.851557000000 1 1 1
    0.351557000000    0.148443000000    0.851557000000 1 1 1
    0.851557000000    0.351557000000    0.148443000000 1 1 1
    0.148443000000    0.148443000000    0.148443000000 1 1 1
    0.351557000000    0.648443000000    0.148443000000 1 1 1
    0.148443000000    0.351557000000    0.648443000000 1 1 1
    0.148443000000    0.648443000000    0.851557000000 1 1 1
    0.851557000000    0.851557000000    0.851557000000 1 1 1
