Transformation
0.529176965773
32.125341805842  0.000000000000  0.000000000000
0.000000000000  34.015067794421  0.000000000000
0.000000000000  0.000000000000  202.436983453913
C  
1000  
Direct
0.632062000000  0.511979000000  0.007766000000  
0.643376000000  0.445190000000  0.014224000000  
0.643377000000  0.444508000000  0.027056000000  
0.632087000000  0.511905000000  0.033736000000  
0.632007000000  0.512139000000  0.047302000000  
0.643374000000  0.445537000000  0.054049000000  
0.643370000000  0.446084000000  0.068684000000  
0.629877000000  0.518034000000  0.075384000000  
0.624295000000  0.531390000000  0.090397000000  
0.639842000000  0.482516000000  0.101128000000  
0.641016000000  0.413291000000  0.100560000000  
0.626054000000  0.527451000000  0.113307000000  
0.636098000000  0.498854000000  0.128272000000  
0.642749000000  0.428342000000  0.132062000000  
0.642138000000  0.421849000000  0.146239000000  
0.638610000000  0.488597000000  0.151487000000  
0.635092000000  0.502427000000  0.166122000000  
0.643262000000  0.437566000000  0.175962000000  
0.643302000000  0.450003000000  0.188183000000  
0.631636000000  0.513207000000  0.193615000000  
0.631186000000  0.514477000000  0.206878000000  
0.643372000000  0.445870000000  0.213702000000  
0.643376000000  0.445171000000  0.226675000000  
0.632137000000  0.511762000000  0.233238000000  
0.632208000000  0.511554000000  0.246122000000  
0.643370000000  0.442789000000  0.253027000000  
0.643377000000  0.444019000000  0.265908000000  
0.633419000000  0.507895000000  0.271361000000  
0.629863000000  0.518071000000  0.283320000000  
0.643235000000  0.452113000000  0.292358000000  
0.643151000000  0.454095000000  0.305626000000  
0.629428000000  0.519211000000  0.312586000000  
0.631495000000  0.513606000000  0.326061000000  
0.643363000000  0.442048000000  0.332883000000  
0.643372000000  0.442966000000  0.346036000000  
0.633577000000  0.507400000000  0.351623000000  
0.630239000000  0.517070000000  0.363676000000  
0.643188000000  0.453282000000  0.372454000000  
0.643066000000  0.455771000000  0.386073000000  
0.629349000000  0.519414000000  0.393011000000  
0.631208000000  0.514416000000  0.406620000000  
0.643374000000  0.443416000000  0.413279000000  
0.643370000000  0.442749000000  0.426530000000  
0.632200000000  0.511578000000  0.433301000000  
0.632141000000  0.511749000000  0.446588000000  
0.643377000000  0.444050000000  0.453251000000  
0.643376000000  0.443862000000  0.466229000000  
0.632928000000  0.509405000000  0.472818000000  
0.634041000000  0.505925000000  0.485088000000  
0.643324000000  0.439775000000  0.491668000000  
0.643300000000  0.450102000000  0.503539000000  
0.624838000000  0.530197000000  0.505206000000  
0.624485000000  0.530974000000  0.527585000000  
0.643201000000  0.452958000000  0.532861000000  
0.643356000000  0.447417000000  0.546626000000  
0.631836000000  0.512634000000  0.553548000000  
0.632147000000  0.511731000000  0.566618000000  
0.643377000000  0.444016000000  0.573278000000  
0.643377000000  0.444101000000  0.586697000000  
0.632003000000  0.512152000000  0.593363000000  
0.631859000000  0.512566000000  0.606985000000  
0.643377000000  0.444727000000  0.613871000000  
0.643377000000  0.444670000000  0.628357000000  
0.631516000000  0.513548000000  0.634797000000  
0.626981000000  0.525282000000  0.649146000000  
0.640714000000  0.477521000000  0.660081000000  
0.640732000000  0.411480000000  0.660019000000  
0.626762000000  0.525800000000  0.671159000000  
0.631348000000  0.514024000000  0.685309000000  
0.643372000000  0.445906000000  0.691566000000  
0.643371000000  0.446011000000  0.706014000000  
0.631770000000  0.512823000000  0.712834000000  
0.632321000000  0.511221000000  0.726368000000  
0.643361000000  0.441848000000  0.732588000000  
0.643260000000  0.437500000000  0.745113000000  
0.637551000000  0.493199000000  0.752525000000  
0.637212000000  0.494580000000  0.774841000000  
0.642625000000  0.462059000000  0.765346000000  
0.642559000000  0.462815000000  0.787517000000  
0.629910000000  0.517948000000  0.794981000000  
0.631197000000  0.514447000000  0.807054000000  
0.643376000000  0.444950000000  0.813467000000  
0.643377000000  0.444873000000  0.826485000000  
0.631170000000  0.514522000000  0.832893000000  
0.629870000000  0.518054000000  0.845094000000  
0.642655000000  0.461709000000  0.852828000000  
0.637492000000  0.493440000000  0.865352000000  
0.642805000000  0.459808000000  0.875278000000  
0.637941000000  0.491560000000  0.887851000000  
0.643193000000  0.435722000000  0.895474000000  
0.643340000000  0.440549000000  0.907629000000  
0.633273000000  0.508348000000  0.913704000000  
0.632702000000  0.510087000000  0.927488000000  
0.643374000000  0.443419000000  0.934054000000  
0.643321000000  0.439629000000  0.947698000000  
0.632046000000  0.512027000000  0.955243000000  
0.631964000000  0.512265000000  0.968869000000  
0.643348000000  0.441006000000  0.977298000000  
0.643330000000  0.448850000000  0.989286000000  
0.631998000000  0.512165000000  0.995362000000  
0.549649000000  0.620203000000  0.007513000000  
0.599255000000  0.572874000000  0.014377000000  
0.598908000000  0.573325000000  0.027095000000  
0.547975000000  0.621363000000  0.033670000000  
0.547312000000  0.621817000000  0.046903000000  
0.599114000000  0.573057000000  0.053863000000  
0.597014000000  0.575743000000  0.067806000000  
0.542488000000  0.625018000000  0.073827000000  
0.534365000000  0.630030000000  0.088019000000  
0.583397000000  0.591325000000  0.095384000000  
0.585469000000  0.589136000000  0.109697000000  
0.535528000000  0.629341000000  0.118258000000  
0.536661000000  0.628660000000  0.131191000000  
0.577431000000  0.597313000000  0.140909000000  
0.619647000000  0.540895000000  0.140332000000  
0.537916000000  0.627896000000  0.151888000000  
0.548126000000  0.621260000000  0.165538000000  
0.600667000000  0.571015000000  0.172155000000  
0.599063000000  0.573124000000  0.186425000000  
0.547617000000  0.621609000000  0.193032000000  
0.547515000000  0.621679000000  0.206629000000  
0.598656000000  0.573650000000  0.213286000000  
0.598709000000  0.573582000000  0.226560000000  
0.547836000000  0.621459000000  0.233254000000  
0.548949000000  0.620691000000  0.246421000000  
0.600196000000  0.571640000000  0.252706000000  
0.602487000000  0.568557000000  0.264870000000  
0.562693000000  0.610368000000  0.272338000000  
0.561514000000  0.611318000000  0.294629000000  
0.586348000000  0.588189000000  0.285029000000  
0.585857000000  0.588719000000  0.307329000000  
0.541861000000  0.625421000000  0.314854000000  
0.546348000000  0.622471000000  0.327155000000  
0.600106000000  0.571758000000  0.333093000000  
0.603369000000  0.567338000000  0.345287000000  
0.562801000000  0.610281000000  0.353070000000  
0.562783000000  0.610295000000  0.375200000000  
0.587005000000  0.587475000000  0.365502000000  
0.587283000000  0.587170000000  0.387801000000  
0.543421000000  0.624412000000  0.395411000000  
0.546835000000  0.622141000000  0.407537000000  
0.598412000000  0.573964000000  0.413695000000  
0.599379000000  0.572712000000  0.426687000000  
0.547545000000  0.621658000000  0.433523000000  
0.548022000000  0.621331000000  0.446681000000  
0.599325000000  0.572782000000  0.453260000000  
0.599950000000  0.571964000000  0.466462000000  
0.550046000000  0.619924000000  0.473544000000  
0.553894000000  0.617160000000  0.487123000000  
0.609582000000  0.558220000000  0.492457000000  
0.608629000000  0.559685000000  0.514795000000  
0.551176000000  0.619125000000  0.516517000000  
0.542368000000  0.625095000000  0.528547000000  
0.594452000000  0.578906000000  0.535087000000  
0.597154000000  0.575566000000  0.547208000000  
0.547622000000  0.621605000000  0.553842000000  
0.547745000000  0.621521000000  0.566766000000  
0.599188000000  0.572962000000  0.573443000000  
0.599143000000  0.573020000000  0.586667000000  
0.547690000000  0.621559000000  0.593369000000  
0.547691000000  0.621558000000  0.606646000000  
0.599448000000  0.572623000000  0.613524000000  
0.598617000000  0.573701000000  0.627272000000  
0.546064000000  0.622661000000  0.633553000000  
0.543346000000  0.624461000000  0.647105000000  
0.590424000000  0.583650000000  0.653702000000  
0.590433000000  0.583640000000  0.666683000000  
0.543614000000  0.624286000000  0.673327000000  
0.545763000000  0.622864000000  0.686627000000  
0.598174000000  0.574270000000  0.692925000000  
0.599194000000  0.572954000000  0.706541000000  
0.548028000000  0.621327000000  0.713377000000  
0.548700000000  0.620863000000  0.726834000000  
0.601102000000  0.570433000000  0.733365000000  
0.604038000000  0.566404000000  0.747121000000  
0.555406000000  0.616041000000  0.754131000000  
0.553294000000  0.617599000000  0.767612000000  
0.602178000000  0.568979000000  0.776568000000  
0.596104000000  0.576880000000  0.788484000000  
0.546562000000  0.622326000000  0.794081000000  
0.545564000000  0.622997000000  0.806952000000  
0.598331000000  0.574068000000  0.813699000000  
0.598365000000  0.574025000000  0.826259000000  
0.545303000000  0.623171000000  0.833067000000  
0.545952000000  0.622737000000  0.845941000000  
0.595454000000  0.577683000000  0.851544000000  
0.601816000000  0.569471000000  0.863540000000  
0.551922000000  0.618592000000  0.872564000000  
0.554887000000  0.616427000000  0.886199000000  
0.605222000000  0.564722000000  0.893162000000  
0.603530000000  0.567114000000  0.906910000000  
0.557575000000  0.614401000000  0.913246000000  
0.555359000000  0.616076000000  0.926169000000  
0.601057000000  0.570494000000  0.933564000000  
0.596553000000  0.576320000000  0.947397000000  
0.531839000000  0.631498000000  0.952160000000  
0.500022000000  0.646686000000  0.964572000000  
0.597406000000  0.575248000000  0.977110000000  
0.601822000000  0.569463000000  0.989306000000  
0.553730000000  0.617281000000  0.995235000000  
0.414973000000  0.663168000000  0.006621000000  
0.484837000000  0.652018000000  0.013678000000  
0.483524000000  0.652426000000  0.026773000000  
0.411504000000  0.663189000000  0.033312000000  
0.411850000000  0.663189000000  0.046657000000  
0.483337000000  0.652483000000  0.053333000000  
0.481143000000  0.653145000000  0.066498000000  
0.408312000000  0.663165000000  0.072531000000  
0.403120000000  0.663037000000  0.085002000000  
0.460882000000  0.658214000000  0.092593000000  
0.426055000000  0.662773000000  0.105513000000  
0.459750000000  0.658443000000  0.115780000000  
0.424023000000  0.662883000000  0.128149000000  
0.475810000000  0.654660000000  0.135528000000  
0.472759000000  0.655468000000  0.147257000000  
0.408474000000  0.663167000000  0.153555000000  
0.410411000000  0.663186000000  0.166638000000  
0.483417000000  0.652459000000  0.173006000000  
0.484536000000  0.652112000000  0.186571000000  
0.412392000000  0.663189000000  0.193320000000  
0.412167000000  0.663189000000  0.206695000000  
0.482936000000  0.652606000000  0.213296000000  
0.483014000000  0.652582000000  0.226658000000  
0.412032000000  0.663189000000  0.233435000000  
0.412421000000  0.663189000000  0.246840000000  
0.485632000000  0.651766000000  0.253410000000  
0.490554000000  0.650144000000  0.267027000000  
0.420384000000  0.663038000000  0.274078000000  
0.417730000000  0.663117000000  0.287490000000  
0.487024000000  0.651319000000  0.296361000000  
0.476858000000  0.654373000000  0.308387000000  
0.408803000000  0.663172000000  0.314035000000  
0.408303000000  0.663165000000  0.327469000000  
0.483609000000  0.652400000000  0.334267000000  
0.488335000000  0.650890000000  0.347793000000  
0.414403000000  0.663175000000  0.355174000000  
0.414482000000  0.663174000000  0.368816000000  
0.488112000000  0.650963000000  0.377217000000  
0.480651000000  0.653290000000  0.389183000000  
0.412739000000  0.663187000000  0.395150000000  
0.411847000000  0.663189000000  0.407606000000  
0.483762000000  0.652352000000  0.414241000000  
0.483496000000  0.652434000000  0.426944000000  
0.410469000000  0.663186000000  0.433674000000  
0.411012000000  0.663188000000  0.446856000000  
0.482827000000  0.652639000000  0.453462000000  
0.483146000000  0.652542000000  0.466848000000  
0.412353000000  0.663189000000  0.473428000000  
0.413664000000  0.663182000000  0.486876000000  
0.491385000000  0.649858000000  0.494084000000  
0.488840000000  0.650722000000  0.507554000000  
0.413213000000  0.663185000000  0.513588000000  
0.410501000000  0.663186000000  0.526807000000  
0.481492000000  0.653041000000  0.534019000000  
0.480763000000  0.653257000000  0.546951000000  
0.411869000000  0.663189000000  0.553125000000  
0.409827000000  0.663182000000  0.566350000000  
0.482360000000  0.652781000000  0.573392000000  
0.481583000000  0.653014000000  0.586525000000  
0.408864000000  0.663172000000  0.593057000000  
0.409164000000  0.663176000000  0.606394000000  
0.483248000000  0.652510000000  0.613281000000  
0.482965000000  0.652597000000  0.626673000000  
0.411903000000  0.663189000000  0.633296000000  
0.411409000000  0.663189000000  0.646724000000  
0.480017000000  0.653476000000  0.653331000000  
0.479574000000  0.653605000000  0.666917000000  
0.411624000000  0.663189000000  0.673328000000  
0.411506000000  0.663189000000  0.686747000000  
0.482676000000  0.652685000000  0.693419000000  
0.483029000000  0.652577000000  0.706781000000  
0.411587000000  0.663189000000  0.713417000000  
0.411358000000  0.663189000000  0.726492000000  
0.485277000000  0.651879000000  0.733437000000  
0.485928000000  0.651672000000  0.746811000000  
0.413215000000  0.663185000000  0.753453000000  
0.412905000000  0.663187000000  0.766718000000  
0.485083000000  0.651940000000  0.773766000000  
0.482492000000  0.652741000000  0.786967000000  
0.411072000000  0.663188000000  0.793372000000  
0.411064000000  0.663188000000  0.806697000000  
0.482336000000  0.652788000000  0.813334000000  
0.482167000000  0.652839000000  0.826611000000  
0.410656000000  0.663187000000  0.833269000000  
0.410997000000  0.663188000000  0.846711000000  
0.482012000000  0.652885000000  0.853070000000  
0.484671000000  0.652070000000  0.866566000000  
0.411692000000  0.663189000000  0.873768000000  
0.411884000000  0.663189000000  0.888089000000  
0.485804000000  0.651712000000  0.894373000000  
0.496434000000  0.648049000000  0.908510000000  
0.369694000000  0.659550000000  0.919703000000  
0.443430000000  0.661135000000  0.919512000000  
0.492254000000  0.649556000000  0.930265000000  
0.476524000000  0.654465000000  0.943456000000  
0.405187000000  0.663101000000  0.949687000000  
0.417469000000  0.663123000000  0.962626000000  
0.532776000000  0.630958000000  0.974949000000  
0.502072000000  0.645877000000  0.987559000000  
0.420335000000  0.663040000000  0.992797000000  
0.277234000000  0.622506000000  0.006518000000  
0.340752000000  0.652654000000  0.013167000000  
0.339985000000  0.652419000000  0.026640000000  
0.275601000000  0.621395000000  0.033281000000  
0.275562000000  0.621368000000  0.046633000000  
0.340765000000  0.652658000000  0.053318000000  
0.340684000000  0.652633000000  0.066000000000  
0.274033000000  0.620310000000  0.072896000000  
0.274440000000  0.620593000000  0.085892000000  
0.333958000000  0.650477000000  0.091493000000  
0.343499000000  0.653472000000  0.103603000000  
0.279677000000  0.624130000000  0.112519000000  
0.281374000000  0.625232000000  0.126028000000  
0.343744000000  0.653543000000  0.133021000000  
0.338978000000  0.652107000000  0.146826000000  
0.275310000000  0.621195000000  0.153239000000  
0.275336000000  0.621213000000  0.166662000000  
0.340396000000  0.652546000000  0.173374000000  
0.340720000000  0.652644000000  0.186681000000  
0.275864000000  0.621576000000  0.193348000000  
0.275651000000  0.621430000000  0.206658000000  
0.340193000000  0.652483000000  0.213333000000  
0.339960000000  0.652412000000  0.226698000000  
0.275869000000  0.621579000000  0.233356000000  
0.276095000000  0.621733000000  0.246703000000  
0.342002000000  0.653031000000  0.253408000000  
0.342680000000  0.653232000000  0.266887000000  
0.276972000000  0.622329000000  0.273576000000  
0.276846000000  0.622244000000  0.286689000000  
0.341513000000  0.652884000000  0.293555000000  
0.338823000000  0.652058000000  0.306943000000  
0.274158000000  0.620397000000  0.313399000000  
0.274130000000  0.620377000000  0.326491000000  
0.339791000000  0.652360000000  0.333723000000  
0.336988000000  0.651475000000  0.347404000000  
0.265559000000  0.614098000000  0.352584000000  
0.241467000000  0.592704000000  0.365226000000  
0.339726000000  0.652339000000  0.377103000000  
0.346624000000  0.654360000000  0.389106000000  
0.282797000000  0.626140000000  0.395088000000  
0.278254000000  0.623190000000  0.407380000000  
0.340667000000  0.652628000000  0.414128000000  
0.339719000000  0.652337000000  0.427047000000  
0.273342000000  0.619825000000  0.433735000000  
0.272510000000  0.619237000000  0.447014000000  
0.338541000000  0.651970000000  0.453677000000  
0.338691000000  0.652017000000  0.466684000000  
0.273618000000  0.620019000000  0.473589000000  
0.275725000000  0.621480000000  0.486780000000  
0.341918000000  0.653006000000  0.493411000000  
0.341664000000  0.652930000000  0.506563000000  
0.276177000000  0.621789000000  0.513200000000  
0.275666000000  0.621440000000  0.526042000000  
0.341553000000  0.652896000000  0.532884000000  
0.340568000000  0.652598000000  0.545982000000  
0.280893000000  0.624922000000  0.551340000000  
0.272131000000  0.618966000000  0.562946000000  
0.335542000000  0.651004000000  0.572247000000  
0.331848000000  0.649755000000  0.585606000000  
0.267968000000  0.615925000000  0.592208000000  
0.270491000000  0.617785000000  0.606090000000  
0.339188000000  0.652173000000  0.612919000000  
0.339951000000  0.652409000000  0.626514000000  
0.276645000000  0.622108000000  0.633110000000  
0.277078000000  0.622401000000  0.646472000000  
0.341348000000  0.652835000000  0.653164000000  
0.341330000000  0.652829000000  0.666641000000  
0.279315000000  0.623892000000  0.672971000000  
0.278599000000  0.623419000000  0.686101000000  
0.341543000000  0.652893000000  0.693067000000  
0.339323000000  0.652214000000  0.706382000000  
0.271688000000  0.618650000000  0.712516000000  
0.269578000000  0.617118000000  0.725888000000  
0.338716000000  0.652025000000  0.733084000000  
0.339494000000  0.652268000000  0.746531000000  
0.275466000000  0.621303000000  0.753152000000  
0.275988000000  0.621660000000  0.766558000000  
0.340902000000  0.652700000000  0.773272000000  
0.340193000000  0.652483000000  0.786667000000  
0.275626000000  0.621413000000  0.793333000000  
0.275626000000  0.621413000000  0.806667000000  
0.340193000000  0.652483000000  0.813333000000  
0.339945000000  0.652407000000  0.826689000000  
0.275626000000  0.621413000000  0.833333000000  
0.275626000000  0.621413000000  0.846667000000  
0.340022000000  0.652431000000  0.853389000000  
0.339844000000  0.652376000000  0.867032000000  
0.275699000000  0.621463000000  0.873563000000  
0.273248000000  0.619759000000  0.887366000000  
0.334372000000  0.650616000000  0.894867000000  
0.320455000000  0.645473000000  0.909206000000  
0.254726000000  0.605231000000  0.914321000000  
0.256916000000  0.607114000000  0.927320000000  
0.319893000000  0.645244000000  0.931081000000  
0.336432000000  0.651296000000  0.944751000000  
0.275636000000  0.621419000000  0.953179000000  
0.280312000000  0.624545000000  0.966299000000  
0.346982000000  0.654458000000  0.971942000000  
0.349771000000  0.655208000000  0.985706000000  
0.278197000000  0.623152000000  0.993046000000  
0.191611000000  0.512396000000  0.006660000000  
0.224441000000  0.573090000000  0.013321000000  
0.224392000000  0.573027000000  0.026646000000  
0.191488000000  0.512040000000  0.033333000000  
0.191419000000  0.511840000000  0.046629000000  
0.224266000000  0.572863000000  0.053283000000  
0.224205000000  0.572784000000  0.066481000000  
0.191420000000  0.511842000000  0.073211000000  
0.191724000000  0.512720000000  0.086629000000  
0.224321000000  0.572935000000  0.093011000000  
0.225891000000  0.574952000000  0.106521000000  
0.192083000000  0.513746000000  0.113560000000  
0.192185000000  0.514033000000  0.126717000000  
0.225274000000  0.574166000000  0.133242000000  
0.224840000000  0.573607000000  0.146619000000  
0.191466000000  0.511976000000  0.153342000000  
0.191488000000  0.512040000000  0.166667000000  
0.224386000000  0.573020000000  0.173333000000  
0.224386000000  0.573020000000  0.186667000000  
0.191488000000  0.512040000000  0.193333000000  
0.191488000000  0.512040000000  0.206667000000  
0.224386000000  0.573020000000  0.213333000000  
0.224368000000  0.572996000000  0.226693000000  
0.191532000000  0.512168000000  0.233362000000  
0.191658000000  0.512531000000  0.246751000000  
0.224862000000  0.573635000000  0.253396000000  
0.224855000000  0.573626000000  0.266843000000  
0.191309000000  0.511517000000  0.273597000000  
0.191047000000  0.510743000000  0.287231000000  
0.223352000000  0.571664000000  0.293664000000  
0.223311000000  0.571610000000  0.306788000000  
0.190288000000  0.508448000000  0.314056000000  
0.191561000000  0.512252000000  0.327053000000  
0.223789000000  0.572239000000  0.332976000000  
0.223469000000  0.571819000000  0.345225000000  
0.194423000000  0.520039000000  0.351842000000  
0.198972000000  0.530816000000  0.363314000000  
0.265720000000  0.614222000000  0.374898000000  
0.240112000000  0.591304000000  0.387561000000  
0.195783000000  0.523440000000  0.392342000000  
0.192982000000  0.516236000000  0.406262000000  
0.225663000000  0.574663000000  0.413538000000  
0.223705000000  0.572129000000  0.426901000000  
0.190141000000  0.507990000000  0.433294000000  
0.188410000000  0.502334000000  0.446991000000  
0.218603000000  0.565144000000  0.454249000000  
0.219996000000  0.567110000000  0.467472000000  
0.189638000000  0.506405000000  0.476390000000  
0.192781000000  0.515689000000  0.488360000000  
0.224562000000  0.573248000000  0.493870000000  
0.225343000000  0.574253000000  0.506791000000  
0.191677000000  0.512586000000  0.513768000000  
0.192072000000  0.513714000000  0.526555000000  
0.225959000000  0.575040000000  0.532648000000  
0.228793000000  0.578560000000  0.544843000000  
0.199303000000  0.531541000000  0.552356000000  
0.201791000000  0.536765000000  0.573070000000  
0.215614000000  0.560766000000  0.564624000000  
0.213496000000  0.557516000000  0.584991000000  
0.186000000000  0.493288000000  0.588766000000  
0.190460000000  0.508975000000  0.608680000000  
0.223207000000  0.571473000000  0.613291000000  
0.225961000000  0.575042000000  0.626730000000  
0.192424000000  0.514702000000  0.633732000000  
0.193221000000  0.516883000000  0.646648000000  
0.227181000000  0.576576000000  0.652923000000  
0.227560000000  0.577046000000  0.666229000000  
0.194722000000  0.520802000000  0.672433000000  
0.195140000000  0.521855000000  0.684770000000  
0.229337000000  0.579221000000  0.691526000000  
0.222292000000  0.570252000000  0.703482000000  
0.187015000000  0.497297000000  0.705000000000  
0.186505000000  0.495323000000  0.727602000000  
0.220424000000  0.567705000000  0.732943000000  
0.223051000000  0.571266000000  0.746588000000  
0.190969000000  0.510511000000  0.753657000000  
0.191445000000  0.511915000000  0.766662000000  
0.224359000000  0.572983000000  0.773276000000  
0.224386000000  0.573020000000  0.786667000000  
0.191488000000  0.512040000000  0.793333000000  
0.191488000000  0.512040000000  0.806667000000  
0.224386000000  0.573020000000  0.813333000000  
0.224386000000  0.573020000000  0.826667000000  
0.191510000000  0.512104000000  0.833344000000  
0.191505000000  0.512090000000  0.846684000000  
0.224636000000  0.573343000000  0.853353000000  
0.224302000000  0.572910000000  0.866636000000  
0.190576000000  0.509329000000  0.873142000000  
0.189433000000  0.505746000000  0.886001000000  
0.219275000000  0.566099000000  0.893444000000  
0.214246000000  0.558682000000  0.907184000000  
0.184414000000  0.486214000000  0.912139000000  
0.180434000000  0.455231000000  0.924819000000  
0.217287000000  0.563244000000  0.936343000000  
0.225771000000  0.574801000000  0.948341000000  
0.193843000000  0.518536000000  0.955119000000  
0.193012000000  0.516318000000  0.967305000000  
0.226253000000  0.575411000000  0.973782000000  
0.226363000000  0.575551000000  0.986519000000  
0.191782000000  0.512888000000  0.993432000000  
0.191488000000  0.376849000000  0.006667000000  
0.180152000000  0.444444000000  0.013333000000  
0.180152000000  0.444444000000  0.026667000000  
0.191532000000  0.376721000000  0.033334000000  
0.191615000000  0.376481000000  0.046608000000  
0.180153000000  0.444242000000  0.053274000000  
0.180152000000  0.444610000000  0.066648000000  
0.190739000000  0.379066000000  0.073410000000  
0.189855000000  0.381795000000  0.087007000000  
0.180175000000  0.447520000000  0.093290000000  
0.180177000000  0.447632000000  0.106998000000  
0.190013000000  0.381297000000  0.113358000000  
0.190847000000  0.378741000000  0.126711000000  
0.180153000000  0.444742000000  0.133465000000  
0.180153000000  0.444231000000  0.146699000000  
0.191741000000  0.376119000000  0.153369000000  
0.191636000000  0.376420000000  0.166686000000  
0.180152000000  0.444444000000  0.173333000000  
0.180152000000  0.444444000000  0.186667000000  
0.191488000000  0.376849000000  0.193333000000  
0.191488000000  0.376849000000  0.206667000000  
0.180152000000  0.444444000000  0.213333000000  
0.180152000000  0.444474000000  0.226681000000  
0.191488000000  0.376849000000  0.233333000000  
0.191431000000  0.377016000000  0.246716000000  
0.180154000000  0.445201000000  0.253458000000  
0.180153000000  0.444916000000  0.266954000000  
0.191314000000  0.377357000000  0.273384000000  
0.193071000000  0.372412000000  0.287597000000  
0.180299000000  0.436673000000  0.294580000000  
0.180234000000  0.438656000000  0.308240000000  
0.193922000000  0.370147000000  0.317555000000  
0.190549000000  0.379644000000  0.330421000000  
0.180152000000  0.444323000000  0.335416000000  
0.180670000000  0.459063000000  0.348545000000  
0.203322000000  0.349080000000  0.360290000000  
0.182400000000  0.414047000000  0.359823000000  
0.181529000000  0.468258000000  0.370040000000  
0.180666000000  0.459010000000  0.384344000000  
0.189162000000  0.384027000000  0.391021000000  
0.190002000000  0.381332000000  0.405328000000  
0.180158000000  0.446001000000  0.412369000000  
0.180171000000  0.441681000000  0.425944000000  
0.193614000000  0.370958000000  0.432036000000  
0.195654000000  0.365763000000  0.444263000000  
0.181358000000  0.422152000000  0.452147000000  
0.187170000000  0.391006000000  0.464769000000  
0.181093000000  0.424750000000  0.474628000000  
0.186510000000  0.393546000000  0.487341000000  
0.180233000000  0.450201000000  0.494851000000  
0.180165000000  0.446697000000  0.507280000000  
0.190858000000  0.378708000000  0.513633000000  
0.190899000000  0.378587000000  0.527292000000  
0.180176000000  0.447553000000  0.533709000000  
0.180364000000  0.453787000000  0.547415000000  
0.188133000000  0.387518000000  0.554877000000  
0.187746000000  0.388890000000  0.569308000000  
0.181322000000  0.466403000000  0.576576000000  
0.182276000000  0.473995000000  0.597968000000  
0.203077000000  0.349559000000  0.602056000000  
0.182632000000  0.412525000000  0.603936000000  
0.180308000000  0.452468000000  0.614479000000  
0.180153000000  0.445081000000  0.626974000000  
0.190795000000  0.378900000000  0.633788000000  
0.187186000000  0.390945000000  0.648621000000  
0.180617000000  0.458290000000  0.653207000000  
0.180719000000  0.459740000000  0.666024000000  
0.186120000000  0.395109000000  0.670883000000  
0.187895000000  0.388359000000  0.685661000000  
0.181394000000  0.467061000000  0.691816000000  
0.181068000000  0.463878000000  0.714579000000  
0.188394000000  0.386611000000  0.716093000000  
0.191953000000  0.375514000000  0.728562000000  
0.180226000000  0.438941000000  0.735055000000  
0.180171000000  0.441692000000  0.747334000000  
0.191833000000  0.375854000000  0.753884000000  
0.191789000000  0.375981000000  0.766785000000  
0.180153000000  0.444015000000  0.773462000000  
0.180152000000  0.444444000000  0.786667000000  
0.191488000000  0.376849000000  0.793333000000  
0.191488000000  0.376849000000  0.806667000000  
0.180152000000  0.444583000000  0.813318000000  
0.180152000000  0.444545000000  0.826691000000  
0.191064000000  0.378096000000  0.833147000000  
0.191473000000  0.376892000000  0.846249000000  
0.180152000000  0.444415000000  0.853202000000  
0.180160000000  0.442642000000  0.866191000000  
0.193963000000  0.370040000000  0.872636000000  
0.195248000000  0.366766000000  0.884837000000  
0.180436000000  0.433633000000  0.892154000000  
0.180739000000  0.428880000000  0.904352000000  
0.196527000000  0.363657000000  0.910690000000  
0.192246000000  0.374685000000  0.923208000000  
0.185520000000  0.491264000000  0.934994000000  
0.180884000000  0.461813000000  0.947767000000  
0.189058000000  0.384372000000  0.953093000000  
0.190481000000  0.379850000000  0.966750000000  
0.180168000000  0.446981000000  0.973779000000  
0.180156000000  0.445646000000  0.986735000000  
0.191348000000  0.377257000000  0.993366000000  
0.275535000000  0.267539000000  0.006623000000  
0.224311000000  0.315967000000  0.013293000000  
0.224386000000  0.315869000000  0.026667000000  
0.275684000000  0.267436000000  0.033351000000  
0.275526000000  0.267545000000  0.047041000000  
0.224985000000  0.315094000000  0.053485000000  
0.223928000000  0.316467000000  0.067098000000  
0.274538000000  0.268227000000  0.074641000000  