ATOMIC_SPECIES
C 12.011 C_ONCV_PBE-1.0.upf

NUMERICAL_ORBITAL
C_gga_8au_60Ry_2s2p1d.orb

LATTICE_CONSTANT
1

LATTICE_VECTORS
32.1253418058417  0.00000000000000  0.000000000000000
0.00000000000000  34.0150677944206  0.000000000000000
0.00000000000000  0.00000000000000  202.4369834539126

ATOMIC_POSITIONS
Direct

C
0
1000
0.6320620000  0.5119790000  0.0077660000  1  1  1
0.6433760000  0.4451900000  0.0142240000  1  1  1
0.6433770000  0.4445080000  0.0270560000  1  1  1
0.6320870000  0.5119050000  0.0337360000  1  1  1
0.6320070000  0.5121390000  0.0473020000  1  1  1
0.6433740000  0.4455370000  0.0540490000  1  1  1
0.6433700000  0.4460840000  0.0686840000  1  1  1
0.6298770000  0.5180340000  0.0753840000  1  1  1
0.6242950000  0.5313900000  0.0903970000  1  1  1
0.6398420000  0.4825160000  0.1011280000  1  1  1
0.6410160000  0.4132910000  0.1005600000  1  1  1
0.6260540000  0.5274510000  0.1133070000  1  1  1
0.6360980000  0.4988540000  0.1282720000  1  1  1
0.6427490000  0.4283420000  0.1320620000  1  1  1
0.6421380000  0.4218490000  0.1462390000  1  1  1
0.6386100000  0.4885970000  0.1514870000  1  1  1
0.6350920000  0.5024270000  0.1661220000  1  1  1
0.6432620000  0.4375660000  0.1759620000  1  1  1
0.6433020000  0.4500030000  0.1881830000  1  1  1
0.6316360000  0.5132070000  0.1936150000  1  1  1
0.6311860000  0.5144770000  0.2068780000  1  1  1
0.6433720000  0.4458700000  0.2137020000  1  1  1
0.6433760000  0.4451710000  0.2266750000  1  1  1
0.6321370000  0.5117620000  0.2332380000  1  1  1
0.6322080000  0.5115540000  0.2461220000  1  1  1
0.6433700000  0.4427890000  0.2530270000  1  1  1
0.6433770000  0.4440190000  0.2659080000  1  1  1
0.6334190000  0.5078950000  0.2713610000  1  1  1
0.6298630000  0.5180710000  0.2833200000  1  1  1
0.6432350000  0.4521130000  0.2923580000  1  1  1
0.6431510000  0.4540950000  0.3056260000  1  1  1
0.6294280000  0.5192110000  0.3125860000  1  1  1
0.6314950000  0.5136060000  0.3260610000  1  1  1
0.6433630000  0.4420480000  0.3328830000  1  1  1
0.6433720000  0.4429660000  0.3460360000  1  1  1
0.6335770000  0.5074000000  0.3516230000  1  1  1
0.6302390000  0.5170700000  0.3636760000  1  1  1
0.6431880000  0.4532820000  0.3724540000  1  1  1
0.6430660000  0.4557710000  0.3860730000  1  1  1
0.6293490000  0.5194140000  0.3930110000  1  1  1
0.6312080000  0.5144160000  0.4066200000  1  1  1
0.6433740000  0.4434160000  0.4132790000  1  1  1
0.6433700000  0.4427490000  0.4265300000  1  1  1
0.6322000000  0.5115780000  0.4333010000  1  1  1
0.6321410000  0.5117490000  0.4465880000  1  1  1
0.6433770000  0.4440500000  0.4532510000  1  1  1
0.6433760000  0.4438620000  0.4662290000  1  1  1
0.6329280000  0.5094050000  0.4728180000  1  1  1
0.6340410000  0.5059250000  0.4850880000  1  1  1
0.6433240000  0.4397750000  0.4916680000  1  1  1
0.6433000000  0.4501020000  0.5035390000  1  1  1
0.6248380000  0.5301970000  0.5052060000  1  1  1
0.6244850000  0.5309740000  0.5275850000  1  1  1
0.6432010000  0.4529580000  0.5328610000  1  1  1
0.6433560000  0.4474170000  0.5466260000  1  1  1
0.6318360000  0.5126340000  0.5535480000  1  1  1
0.6321470000  0.5117310000  0.5666180000  1  1  1
0.6433770000  0.4440160000  0.5732780000  1  1  1
0.6433770000  0.4441010000  0.5866970000  1  1  1
0.6320030000  0.5121520000  0.5933630000  1  1  1
0.6318590000  0.5125660000  0.6069850000  1  1  1
0.6433770000  0.4447270000  0.6138710000  1  1  1
0.6433770000  0.4446700000  0.6283570000  1  1  1
0.6315160000  0.5135480000  0.6347970000  1  1  1
0.6269810000  0.5252820000  0.6491460000  1  1  1
0.6407140000  0.4775210000  0.6600810000  1  1  1
0.6407320000  0.4114800000  0.6600190000  1  1  1
0.6267620000  0.5258000000  0.6711590000  1  1  1
0.6313480000  0.5140240000  0.6853090000  1  1  1
0.6433720000  0.4459060000  0.6915660000  1  1  1
0.6433710000  0.4460110000  0.7060140000  1  1  1
0.6317700000  0.5128230000  0.7128340000  1  1  1
0.6323210000  0.5112210000  0.7263680000  1  1  1
0.6433610000  0.4418480000  0.7325880000  1  1  1
0.6432600000  0.4375000000  0.7451130000  1  1  1
0.6375510000  0.4931990000  0.7525250000  1  1  1
0.6372120000  0.4945800000  0.7748410000  1  1  1
0.6426250000  0.4620590000  0.7653460000  1  1  1
0.6425590000  0.4628150000  0.7875170000  1  1  1
0.6299100000  0.5179480000  0.7949810000  1  1  1
0.6311970000  0.5144470000  0.8070540000  1  1  1
0.6433760000  0.4449500000  0.8134670000  1  1  1
0.6433770000  0.4448730000  0.8264850000  1  1  1
0.6311700000  0.5145220000  0.8328930000  1  1  1
0.6298700000  0.5180540000  0.8450940000  1  1  1
0.6426550000  0.4617090000  0.8528280000  1  1  1
0.6374920000  0.4934400000  0.8653520000  1  1  1
0.6428050000  0.4598080000  0.8752780000  1  1  1
0.6379410000  0.4915600000  0.8878510000  1  1  1
0.6431930000  0.4357220000  0.8954740000  1  1  1
0.6433400000  0.4405490000  0.9076290000  1  1  1
0.6332730000  0.5083480000  0.9137040000  1  1  1
0.6327020000  0.5100870000  0.9274880000  1  1  1
0.6433740000  0.4434190000  0.9340540000  1  1  1
0.6433210000  0.4396290000  0.9476980000  1  1  1
0.6320460000  0.5120270000  0.9552430000  1  1  1
0.6319640000  0.5122650000  0.9688690000  1  1  1
0.6433480000  0.4410060000  0.9772980000  1  1  1
0.6433300000  0.4488500000  0.9892860000  1  1  1
0.6319980000  0.5121650000  0.9953620000  1  1  1
0.5496490000  0.6202030000  0.0075130000  1  1  1
0.5992550000  0.5728740000  0.0143770000  1  1  1
0.5989080000  0.5733250000  0.0270950000  1  1  1
0.5479750000  0.6213630000  0.0336700000  1  1  1
0.5473120000  0.6218170000  0.0469030000  1  1  1
0.5991140000  0.5730570000  0.0538630000  1  1  1
0.5970140000  0.5757430000  0.0678060000  1  1  1
0.5424880000  0.6250180000  0.0738270000  1  1  1
0.5343650000  0.6300300000  0.0880190000  1  1  1
0.5833970000  0.5913250000  0.0953840000  1  1  1
0.5854690000  0.5891360000  0.1096970000  1  1  1
0.5355280000  0.6293410000  0.1182580000  1  1  1
0.5366610000  0.6286600000  0.1311910000  1  1  1
0.5774310000  0.5973130000  0.1409090000  1  1  1
0.6196470000  0.5408950000  0.1403320000  1  1  1
0.5379160000  0.6278960000  0.1518880000  1  1  1
0.5481260000  0.6212600000  0.1655380000  1  1  1
0.6006670000  0.5710150000  0.1721550000  1  1  1
0.5990630000  0.5731240000  0.1864250000  1  1  1
0.5476170000  0.6216090000  0.1930320000  1  1  1
0.5475150000  0.6216790000  0.2066290000  1  1  1
0.5986560000  0.5736500000  0.2132860000  1  1  1
0.5987090000  0.5735820000  0.2265600000  1  1  1
0.5478360000  0.6214590000  0.2332540000  1  1  1
0.5489490000  0.6206910000  0.2464210000  1  1  1
0.6001960000  0.5716400000  0.2527060000  1  1  1
0.6024870000  0.5685570000  0.2648700000  1  1  1
0.5626930000  0.6103680000  0.2723380000  1  1  1
0.5615140000  0.6113180000  0.2946290000  1  1  1
0.5863480000  0.5881890000  0.2850290000  1  1  1
0.5858570000  0.5887190000  0.3073290000  1  1  1
0.5418610000  0.6254210000  0.3148540000  1  1  1
0.5463480000  0.6224710000  0.3271550000  1  1  1
0.6001060000  0.5717580000  0.3330930000  1  1  1
0.6033690000  0.5673380000  0.3452870000  1  1  1
0.5628010000  0.6102810000  0.3530700000  1  1  1
0.5627830000  0.6102950000  0.3752000000  1  1  1
0.5870050000  0.5874750000  0.3655020000  1  1  1
0.5872830000  0.5871700000  0.3878010000  1  1  1
0.5434210000  0.6244120000  0.3954110000  1  1  1
0.5468350000  0.6221410000  0.4075370000  1  1  1
0.5984120000  0.5739640000  0.4136950000  1  1  1
0.5993790000  0.5727120000  0.4266870000  1  1  1
0.5475450000  0.6216580000  0.4335230000  1  1  1
0.5480220000  0.6213310000  0.4466810000  1  1  1
0.5993250000  0.5727820000  0.4532600000  1  1  1
0.5999500000  0.5719640000  0.4664620000  1  1  1
0.5500460000  0.6199240000  0.4735440000  1  1  1
0.5538940000  0.6171600000  0.4871230000  1  1  1
0.6095820000  0.5582200000  0.4924570000  1  1  1
0.6086290000  0.5596850000  0.5147950000  1  1  1
0.5511760000  0.6191250000  0.5165170000  1  1  1
0.5423680000  0.6250950000  0.5285470000  1  1  1
0.5944520000  0.5789060000  0.5350870000  1  1  1
0.5971540000  0.5755660000  0.5472080000  1  1  1
0.5476220000  0.6216050000  0.5538420000  1  1  1
0.5477450000  0.6215210000  0.5667660000  1  1  1
0.5991880000  0.5729620000  0.5734430000  1  1  1
0.5991430000  0.5730200000  0.5866670000  1  1  1
0.5476900000  0.6215590000  0.5933690000  1  1  1
0.5476910000  0.6215580000  0.6066460000  1  1  1
0.5994480000  0.5726230000  0.6135240000  1  1  1
0.5986170000  0.5737010000  0.6272720000  1  1  1
0.5460640000  0.6226610000  0.6335530000  1  1  1
0.5433460000  0.6244610000  0.6471050000  1  1  1
0.5904240000  0.5836500000  0.6537020000  1  1  1
0.5904330000  0.5836400000  0.6666830000  1  1  1
0.5436140000  0.6242860000  0.6733270000  1  1  1
0.5457630000  0.6228640000  0.6866270000  1  1  1
0.5981740000  0.5742700000  0.6929250000  1  1  1
0.5991940000  0.5729540000  0.7065410000  1  1  1
0.5480280000  0.6213270000  0.7133770000  1  1  1
0.5487000000  0.6208630000  0.7268340000  1  1  1
0.6011020000  0.5704330000  0.7333650000  1  1  1
0.6040380000  0.5664040000  0.7471210000  1  1  1
0.5554060000  0.6160410000  0.7541310000  1  1  1
0.5532940000  0.6175990000  0.7676120000  1  1  1
0.6021780000  0.5689790000  0.7765680000  1  1  1
0.5961040000  0.5768800000  0.7884840000  1  1  1
0.5465620000  0.6223260000  0.7940810000  1  1  1
0.5455640000  0.6229970000  0.8069520000  1  1  1
0.5983310000  0.5740680000  0.8136990000  1  1  1
0.5983650000  0.5740250000  0.8262590000  1  1  1
0.5453030000  0.6231710000  0.8330670000  1  1  1
0.5459520000  0.6227370000  0.8459410000  1  1  1
0.5954540000  0.5776830000  0.8515440000  1  1  1
0.6018160000  0.5694710000  0.8635400000  1  1  1
0.5519220000  0.6185920000  0.8725640000  1  1  1
0.5548870000  0.6164270000  0.8861990000  1  1  1
0.6052220000  0.5647220000  0.8931620000  1  1  1
0.6035300000  0.5671140000  0.9069100000  1  1  1
0.5575750000  0.6144010000  0.9132460000  1  1  1
0.5553590000  0.6160760000  0.9261690000  1  1  1
0.6010570000  0.5704940000  0.9335640000  1  1  1
0.5965530000  0.5763200000  0.9473970000  1  1  1
0.5318390000  0.6314980000  0.9521600000  1  1  1
0.5000220000  0.6466860000  0.9645720000  1  1  1
0.5974060000  0.5752480000  0.9771100000  1  1  1
0.6018220000  0.5694630000  0.9893060000  1  1  1
0.5537300000  0.6172810000  0.9952350000  1  1  1
0.4149730000  0.6631680000  0.0066210000  1  1  1
0.4848370000  0.6520180000  0.0136780000  1  1  1
0.4835240000  0.6524260000  0.0267730000  1  1  1
0.4115040000  0.6631890000  0.0333120000  1  1  1
0.4118500000  0.6631890000  0.0466570000  1  1  1
0.4833370000  0.6524830000  0.0533330000  1  1  1
0.4811430000  0.6531450000  0.0664980000  1  1  1
0.4083120000  0.6631650000  0.0725310000  1  1  1
0.4031200000  0.6630370000  0.0850020000  1  1  1
0.4608820000  0.6582140000  0.0925930000  1  1  1
0.4260550000  0.6627730000  0.1055130000  1  1  1
0.4597500000  0.6584430000  0.1157800000  1  1  1
0.4240230000  0.6628830000  0.1281490000  1  1  1
0.4758100000  0.6546600000  0.1355280000  1  1  1
0.4727590000  0.6554680000  0.1472570000  1  1  1
0.4084740000  0.6631670000  0.1535550000  1  1  1
0.4104110000  0.6631860000  0.1666380000  1  1  1
0.4834170000  0.6524590000  0.1730060000  1  1  1
0.4845360000  0.6521120000  0.1865710000  1  1  1
0.4123920000  0.6631890000  0.1933200000  1  1  1
0.4121670000  0.6631890000  0.2066950000  1  1  1
0.4829360000  0.6526060000  0.2132960000  1  1  1
0.4830140000  0.6525820000  0.2266580000  1  1  1
0.4120320000  0.6631890000  0.2334350000  1  1  1
0.4124210000  0.6631890000  0.2468400000  1  1  1
0.4856320000  0.6517660000  0.2534100000  1  1  1
0.4905540000  0.6501440000  0.2670270000  1  1  1
0.4203840000  0.6630380000  0.2740780000  1  1  1
0.4177300000  0.6631170000  0.2874900000  1  1  1
0.4870240000  0.6513190000  0.2963610000  1  1  1
0.4768580000  0.6543730000  0.3083870000  1  1  1
0.4088030000  0.6631720000  0.3140350000  1  1  1
0.4083030000  0.6631650000  0.3274690000  1  1  1
0.4836090000  0.6524000000  0.3342670000  1  1  1
0.4883350000  0.6508900000  0.3477930000  1  1  1
0.4144030000  0.6631750000  0.3551740000  1  1  1
0.4144820000  0.6631740000  0.3688160000  1  1  1
0.4881120000  0.6509630000  0.3772170000  1  1  1
0.4806510000  0.6532900000  0.3891830000  1  1  1
0.4127390000  0.6631870000  0.3951500000  1  1  1
0.4118470000  0.6631890000  0.4076060000  1  1  1
0.4837620000  0.6523520000  0.4142410000  1  1  1
0.4834960000  0.6524340000  0.4269440000  1  1  1
0.4104690000  0.6631860000  0.4336740000  1  1  1
0.4110120000  0.6631880000  0.4468560000  1  1  1
0.4828270000  0.6526390000  0.4534620000  1  1  1
0.4831460000  0.6525420000  0.4668480000  1  1  1
0.4123530000  0.6631890000  0.4734280000  1  1  1
0.4136640000  0.6631820000  0.4868760000  1  1  1
0.4913850000  0.6498580000  0.4940840000  1  1  1
0.4888400000  0.6507220000  0.5075540000  1  1  1
0.4132130000  0.6631850000  0.5135880000  1  1  1
0.4105010000  0.6631860000  0.5268070000  1  1  1
0.4814920000  0.6530410000  0.5340190000  1  1  1
0.4807630000  0.6532570000  0.5469510000  1  1  1
0.4118690000  0.6631890000  0.5531250000  1  1  1
0.4098270000  0.6631820000  0.5663500000  1  1  1
0.4823600000  0.6527810000  0.5733920000  1  1  1
0.4815830000  0.6530140000  0.5865250000  1  1  1
0.4088640000  0.6631720000  0.5930570000  1  1  1
0.4091640000  0.6631760000  0.6063940000  1  1  1
0.4832480000  0.6525100000  0.6132810000  1  1  1
0.4829650000  0.6525970000  0.6266730000  1  1  1
0.4119030000  0.6631890000  0.6332960000  1  1  1
0.4114090000  0.6631890000  0.6467240000  1  1  1
0.4800170000  0.6534760000  0.6533310000  1  1  1
0.4795740000  0.6536050000  0.6669170000  1  1  1
0.4116240000  0.6631890000  0.6733280000  1  1  1
0.4115060000  0.6631890000  0.6867470000  1  1  1
0.4826760000  0.6526850000  0.6934190000  1  1  1
0.4830290000  0.6525770000  0.7067810000  1  1  1
0.4115870000  0.6631890000  0.7134170000  1  1  1
0.4113580000  0.6631890000  0.7264920000  1  1  1
0.4852770000  0.6518790000  0.7334370000  1  1  1
0.4859280000  0.6516720000  0.7468110000  1  1  1
0.4132150000  0.6631850000  0.7534530000  1  1  1
0.4129050000  0.6631870000  0.7667180000  1  1  1
0.4850830000  0.6519400000  0.7737660000  1  1  1
0.4824920000  0.6527410000  0.7869670000  1  1  1
0.4110720000  0.6631880000  0.7933720000  1  1  1
0.4110640000  0.6631880000  0.8066970000  1  1  1
0.4823360000  0.6527880000  0.8133340000  1  1  1
0.4821670000  0.6528390000  0.8266110000  1  1  1
0.4106560000  0.6631870000  0.8332690000  1  1  1
0.4109970000  0.6631880000  0.8467110000  1  1  1
0.4820120000  0.6528850000  0.8530700000  1  1  1
0.4846710000  0.6520700000  0.8665660000  1  1  1
0.4116920000  0.6631890000  0.8737680000  1  1  1
0.4118840000  0.6631890000  0.8880890000  1  1  1
0.4858040000  0.6517120000  0.8943730000  1  1  1
0.4964340000  0.6480490000  0.9085100000  1  1  1
0.3696940000  0.6595500000  0.9197030000  1  1  1
0.4434300000  0.6611350000  0.9195120000  1  1  1
0.4922540000  0.6495560000  0.9302650000  1  1  1
0.4765240000  0.6544650000  0.9434560000  1  1  1
0.4051870000  0.6631010000  0.9496870000  1  1  1
0.4174690000  0.6631230000  0.9626260000  1  1  1
0.5327760000  0.6309580000  0.9749490000  1  1  1
0.5020720000  0.6458770000  0.9875590000  1  1  1
0.4203350000  0.6630400000  0.9927970000  1  1  1
0.2772340000  0.6225060000  0.0065180000  1  1  1
0.3407520000  0.6526540000  0.0131670000  1  1  1
0.3399850000  0.6524190000  0.0266400000  1  1  1
0.2756010000  0.6213950000  0.0332810000  1  1  1
0.2755620000  0.6213680000  0.0466330000  1  1  1
0.3407650000  0.6526580000  0.0533180000  1  1  1
0.3406840000  0.6526330000  0.0660000000  1  1  1
0.2740330000  0.6203100000  0.0728960000  1  1  1
0.2744400000  0.6205930000  0.0858920000  1  1  1
0.3339580000  0.6504770000  0.0914930000  1  1  1
0.3434990000  0.6534720000  0.1036030000  1  1  1
0.2796770000  0.6241300000  0.1125190000  1  1  1
0.2813740000  0.6252320000  0.1260280000  1  1  1
0.3437440000  0.6535430000  0.1330210000  1  1  1
0.3389780000  0.6521070000  0.1468260000  1  1  1
0.2753100000  0.6211950000  0.1532390000  1  1  1
0.2753360000  0.6212130000  0.1666620000  1  1  1
0.3403960000  0.6525460000  0.1733740000  1  1  1
0.3407200000  0.6526440000  0.1866810000  1  1  1
0.2758640000  0.6215760000  0.1933480000  1  1  1
0.2756510000  0.6214300000  0.2066580000  1  1  1
0.3401930000  0.6524830000  0.2133330000  1  1  1
0.3399600000  0.6524120000  0.2266980000  1  1  1
0.2758690000  0.6215790000  0.2333560000  1  1  1
0.2760950000  0.6217330000  0.2467030000  1  1  1
0.3420020000  0.6530310000  0.2534080000  1  1  1
0.3426800000  0.6532320000  0.2668870000  1  1  1
0.2769720000  0.6223290000  0.2735760000  1  1  1
0.2768460000  0.6222440000  0.2866890000  1  1  1
0.3415130000  0.6528840000  0.2935550000  1  1  1
0.3388230000  0.6520580000  0.3069430000  1  1  1
0.2741580000  0.6203970000  0.3133990000  1  1  1
0.2741300000  0.6203770000  0.3264910000  1  1  1
0.3397910000  0.6523600000  0.3337230000  1  1  1
0.3369880000  0.6514750000  0.3474040000  1  1  1
0.2655590000  0.6140980000  0.3525840000  1  1  1
0.2414670000  0.5927040000  0.3652260000  1  1  1
0.3397260000  0.6523390000  0.3771030000  1  1  1
0.3466240000  0.6543600000  0.3891060000  1  1  1
0.2827970000  0.6261400000  0.3950880000  1  1  1
0.2782540000  0.6231900000  0.4073800000  1  1  1
0.3406670000  0.6526280000  0.4141280000  1  1  1
0.3397190000  0.6523370000  0.4270470000  1  1  1
0.2733420000  0.6198250000  0.4337350000  1  1  1
0.2725100000  0.6192370000  0.4470140000  1  1  1
0.3385410000  0.6519700000  0.4536770000  1  1  1
0.3386910000  0.6520170000  0.4666840000  1  1  1
0.2736180000  0.6200190000  0.4735890000  1  1  1
0.2757250000  0.6214800000  0.4867800000  1  1  1
0.3419180000  0.6530060000  0.4934110000  1  1  1
0.3416640000  0.6529300000  0.5065630000  1  1  1
0.2761770000  0.6217890000  0.5132000000  1  1  1
0.2756660000  0.6214400000  0.5260420000  1  1  1
0.3415530000  0.6528960000  0.5328840000  1  1  1
0.3405680000  0.6525980000  0.5459820000  1  1  1
0.2808930000  0.6249220000  0.5513400000  1  1  1
0.2721310000  0.6189660000  0.5629460000  1  1  1
0.3355420000  0.6510040000  0.5722470000  1  1  1
0.3318480000  0.6497550000  0.5856060000  1  1  1
0.2679680000  0.6159250000  0.5922080000  1  1  1
0.2704910000  0.6177850000  0.6060900000  1  1  1
0.3391880000  0.6521730000  0.6129190000  1  1  1
0.3399510000  0.6524090000  0.6265140000  1  1  1
0.2766450000  0.6221080000  0.6331100000  1  1  1
0.2770780000  0.6224010000  0.6464720000  1  1  1
0.3413480000  0.6528350000  0.6531640000  1  1  1
0.3413300000  0.6528290000  0.6666410000  1  1  1
0.2793150000  0.6238920000  0.6729710000  1  1  1
0.2785990000  0.6234190000  0.6861010000  1  1  1
0.3415430000  0.6528930000  0.6930670000  1  1  1
0.3393230000  0.6522140000  0.7063820000  1  1  1
0.2716880000  0.6186500000  0.7125160000  1  1  1
0.2695780000  0.6171180000  0.7258880000  1  1  1
0.3387160000  0.6520250000  0.7330840000  1  1  1
0.3394940000  0.6522680000  0.7465310000  1  1  1
0.2754660000  0.6213030000  0.7531520000  1  1  1
0.2759880000  0.6216600000  0.7665580000  1  1  1
0.3409020000  0.6527000000  0.7732720000  1  1  1
0.3401930000  0.6524830000  0.7866670000  1  1  1
0.2756260000  0.6214130000  0.7933330000  1  1  1
0.2756260000  0.6214130000  0.8066670000  1  1  1
0.3401930000  0.6524830000  0.8133330000  1  1  1
0.3399450000  0.6524070000  0.8266890000  1  1  1
0.2756260000  0.6214130000  0.8333330000  1  1  1
0.2756260000  0.6214130000  0.8466670000  1  1  1
0.3400220000  0.6524310000  0.8533890000  1  1  1
0.3398440000  0.6523760000  0.8670320000  1  1  1
0.2756990000  0.6214630000  0.8735630000  1  1  1
0.2732480000  0.6197590000  0.8873660000  1  1  1
0.3343720000  0.6506160000  0.8948670000  1  1  1
0.3204550000  0.6454730000  0.9092060000  1  1  1
0.2547260000  0.6052310000  0.9143210000  1  1  1
0.2569160000  0.6071140000  0.9273200000  1  1  1
0.3198930000  0.6452440000  0.9310810000  1  1  1
0.3364320000  0.6512960000  0.9447510000  1  1  1
0.2756360000  0.6214190000  0.9531790000  1  1  1
0.2803120000  0.6245450000  0.9662990000  1  1  1
0.3469820000  0.6544580000  0.9719420000  1  1  1
0.3497710000  0.6552080000  0.9857060000  1  1  1
0.2781970000  0.6231520000  0.9930460000  1  1  1
0.1916110000  0.5123960000  0.0066600000  1  1  1
0.2244410000  0.5730900000  0.0133210000  1  1  1
0.2243920000  0.5730270000  0.0266460000  1  1  1
0.1914880000  0.5120400000  0.0333330000  1  1  1
0.1914190000  0.5118400000  0.0466290000  1  1  1
0.2242660000  0.5728630000  0.0532830000  1  1  1
0.2242050000  0.5727840000  0.0664810000  1  1  1
0.1914200000  0.5118420000  0.0732110000  1  1  1
0.1917240000  0.5127200000  0.0866290000  1  1  1
0.2243210000  0.5729350000  0.0930110000  1  1  1
0.2258910000  0.5749520000  0.1065210000  1  1  1
0.1920830000  0.5137460000  0.1135600000  1  1  1
0.1921850000  0.5140330000  0.1267170000  1  1  1
0.2252740000  0.5741660000  0.1332420000  1  1  1
0.2248400000  0.5736070000  0.1466190000  1  1  1
0.1914660000  0.5119760000  0.1533420000  1  1  1
0.1914880000  0.5120400000  0.1666670000  1  1  1
0.2243860000  0.5730200000  0.1733330000  1  1  1
0.2243860000  0.5730200000  0.1866670000  1  1  1
0.1914880000  0.5120400000  0.1933330000  1  1  1
0.1914880000  0.5120400000  0.2066670000  1  1  1
0.2243860000  0.5730200000  0.2133330000  1  1  1
0.2243680000  0.5729960000  0.2266930000  1  1  1
0.1915320000  0.5121680000  0.2333620000  1  1  1
0.1916580000  0.5125310000  0.2467510000  1  1  1
0.2248620000  0.5736350000  0.2533960000  1  1  1
0.2248550000  0.5736260000  0.2668430000  1  1  1
0.1913090000  0.5115170000  0.2735970000  1  1  1
0.1910470000  0.5107430000  0.2872310000  1  1  1
0.2233520000  0.5716640000  0.2936640000  1  1  1
0.2233110000  0.5716100000  0.3067880000  1  1  1
0.1902880000  0.5084480000  0.3140560000  1  1  1
0.1915610000  0.5122520000  0.3270530000  1  1  1
0.2237890000  0.5722390000  0.3329760000  1  1  1
0.2234690000  0.5718190000  0.3452250000  1  1  1
0.1944230000  0.5200390000  0.3518420000  1  1  1
0.1989720000  0.5308160000  0.3633140000  1  1  1
0.2657200000  0.6142220000  0.3748980000  1  1  1
0.2401120000  0.5913040000  0.3875610000  1  1  1
0.1957830000  0.5234400000  0.3923420000  1  1  1
0.1929820000  0.5162360000  0.4062620000  1  1  1
0.2256630000  0.5746630000  0.4135380000  1  1  1
0.2237050000  0.5721290000  0.4269010000  1  1  1
0.1901410000  0.5079900000  0.4332940000  1  1  1
0.1884100000  0.5023340000  0.4469910000  1  1  1
0.2186030000  0.5651440000  0.4542490000  1  1  1
0.2199960000  0.5671100000  0.4674720000  1  1  1
0.1896380000  0.5064050000  0.4763900000  1  1  1
0.1927810000  0.5156890000  0.4883600000  1  1  1
0.2245620000  0.5732480000  0.4938700000  1  1  1
0.2253430000  0.5742530000  0.5067910000  1  1  1
0.1916770000  0.5125860000  0.5137680000  1  1  1
0.1920720000  0.5137140000  0.5265550000  1  1  1
0.2259590000  0.5750400000  0.5326480000  1  1  1
0.2287930000  0.5785600000  0.5448430000  1  1  1
0.1993030000  0.5315410000  0.5523560000  1  1  1
0.2017910000  0.5367650000  0.5730700000  1  1  1
0.2156140000  0.5607660000  0.5646240000  1  1  1
0.2134960000  0.5575160000  0.5849910000  1  1  1
0.1860000000  0.4932880000  0.5887660000  1  1  1
0.1904600000  0.5089750000  0.6086800000  1  1  1
0.2232070000  0.5714730000  0.6132910000  1  1  1
0.2259610000  0.5750420000  0.6267300000  1  1  1
0.1924240000  0.5147020000  0.6337320000  1  1  1
0.1932210000  0.5168830000  0.6466480000  1  1  1
0.2271810000  0.5765760000  0.6529230000  1  1  1
0.2275600000  0.5770460000  0.6662290000  1  1  1
0.1947220000  0.5208020000  0.6724330000  1  1  1
0.1951400000  0.5218550000  0.6847700000  1  1  1
0.2293370000  0.5792210000  0.6915260000  1  1  1
0.2222920000  0.5702520000  0.7034820000  1  1  1
0.1870150000  0.4972970000  0.7050000000  1  1  1
0.1865050000  0.4953230000  0.7276020000  1  1  1
0.2204240000  0.5677050000  0.7329430000  1  1  1
0.2230510000  0.5712660000  0.7465880000  1  1  1
0.1909690000  0.5105110000  0.7536570000  1  1  1
0.1914450000  0.5119150000  0.7666620000  1  1  1
0.2243590000  0.5729830000  0.7732760000  1  1  1
0.2243860000  0.5730200000  0.7866670000  1  1  1
0.1914880000  0.5120400000  0.7933330000  1  1  1
0.1914880000  0.5120400000  0.8066670000  1  1  1
0.2243860000  0.5730200000  0.8133330000  1  1  1
0.2243860000  0.5730200000  0.8266670000  1  1  1
0.1915100000  0.5121040000  0.8333440000  1  1  1
0.1915050000  0.5120900000  0.8466840000  1  1  1
0.2246360000  0.5733430000  0.8533530000  1  1  1
0.2243020000  0.5729100000  0.8666360000  1  1  1
0.1905760000  0.5093290000  0.8731420000  1  1  1
0.1894330000  0.5057460000  0.8860010000  1  1  1
0.2192750000  0.5660990000  0.8934440000  1  1  1
0.2142460000  0.5586820000  0.9071840000  1  1  1
0.1844140000  0.4862140000  0.9121390000  1  1  1
0.1804340000  0.4552310000  0.9248190000  1  1  1
0.2172870000  0.5632440000  0.9363430000  1  1  1
0.2257710000  0.5748010000  0.9483410000  1  1  1
0.1938430000  0.5185360000  0.9551190000  1  1  1
0.1930120000  0.5163180000  0.9673050000  1  1  1
0.2262530000  0.5754110000  0.9737820000  1  1  1
0.2263630000  0.5755510000  0.9865190000  1  1  1
0.1917820000  0.5128880000  0.9934320000  1  1  1
0.1914880000  0.3768490000  0.0066670000  1  1  1
0.1801520000  0.4444440000  0.0133330000  1  1  1
0.1801520000  0.4444440000  0.0266670000  1  1  1
0.1915320000  0.3767210000  0.0333340000  1  1  1
0.1916150000  0.3764810000  0.0466080000  1  1  1
0.1801530000  0.4442420000  0.0532740000  1  1  1
0.1801520000  0.4446100000  0.0666480000  1  1  1
0.1907390000  0.3790660000  0.0734100000  1  1  1
0.1898550000  0.3817950000  0.0870070000  1  1  1
0.1801750000  0.4475200000  0.0932900000  1  1  1
0.1801770000  0.4476320000  0.1069980000  1  1  1
0.1900130000  0.3812970000  0.1133580000  1  1  1
0.1908470000  0.3787410000  0.1267110000  1  1  1
0.1801530000  0.4447420000  0.1334650000  1  1  1
0.1801530000  0.4442310000  0.1466990000  1  1  1
0.1917410000  0.3761190000  0.1533690000  1  1  1
0.1916360000  0.3764200000  0.1666860000  1  1  1
0.1801520000  0.4444440000  0.1733330000  1  1  1
0.1801520000  0.4444440000  0.1866670000  1  1  1
0.1914880000  0.3768490000  0.1933330000  1  1  1
0.1914880000  0.3768490000  0.2066670000  1  1  1
0.1801520000  0.4444440000  0.2133330000  1  1  1
0.1801520000  0.4444740000  0.2266810000  1  1  1
0.1914880000  0.3768490000  0.2333330000  1  1  1
0.1914310000  0.3770160000  0.2467160000  1  1  1
0.1801540000  0.4452010000  0.2534580000  1  1  1
0.1801530000  0.4449160000  0.2669540000  1  1  1
0.1913140000  0.3773570000  0.2733840000  1  1  1
0.1930710000  0.3724120000  0.2875970000  1  1  1
0.1802990000  0.4366730000  0.2945800000  1  1  1
0.1802340000  0.4386560000  0.3082400000  1  1  1
0.1939220000  0.3701470000  0.3175550000  1  1  1
0.1905490000  0.3796440000  0.3304210000  1  1  1
0.1801520000  0.4443230000  0.3354160000  1  1  1
0.1806700000  0.4590630000  0.3485450000  1  1  1
0.2033220000  0.3490800000  0.3602900000  1  1  1
0.1824000000  0.4140470000  0.3598230000  1  1  1
0.1815290000  0.4682580000  0.3700400000  1  1  1
0.1806660000  0.4590100000  0.3843440000  1  1  1
0.1891620000  0.3840270000  0.3910210000  1  1  1
0.1900020000  0.3813320000  0.4053280000  1  1  1
0.1801580000  0.4460010000  0.4123690000  1  1  1
0.1801710000  0.4416810000  0.4259440000  1  1  1
0.1936140000  0.3709580000  0.4320360000  1  1  1
0.1956540000  0.3657630000  0.4442630000  1  1  1
0.1813580000  0.4221520000  0.4521470000  1  1  1
0.1871700000  0.3910060000  0.4647690000  1  1  1
0.1810930000  0.4247500000  0.4746280000  1  1  1
0.1865100000  0.3935460000  0.4873410000  1  1  1
0.1802330000  0.4502010000  0.4948510000  1  1  1
0.1801650000  0.4466970000  0.5072800000  1  1  1
0.1908580000  0.3787080000  0.5136330000  1  1  1
0.1908990000  0.3785870000  0.5272920000  1  1  1
0.1801760000  0.4475530000  0.5337090000  1  1  1
0.1803640000  0.4537870000  0.5474150000  1  1  1
0.1881330000  0.3875180000  0.5548770000  1  1  1
0.1877460000  0.3888900000  0.5693080000  1  1  1
0.1813220000  0.4664030000  0.5765760000  1  1  1
0.1822760000  0.4739950000  0.5979680000  1  1  1
0.2030770000  0.3495590000  0.6020560000  1  1  1
0.1826320000  0.4125250000  0.6039360000  1  1  1
0.1803080000  0.4524680000  0.6144790000  1  1  1
0.1801530000  0.4450810000  0.6269740000  1  1  1
0.1907950000  0.3789000000  0.6337880000  1  1  1
0.1871860000  0.3909450000  0.6486210000  1  1  1
0.1806170000  0.4582900000  0.6532070000  1  1  1
0.1807190000  0.4597400000  0.6660240000  1  1  1
0.1861200000  0.3951090000  0.6708830000  1  1  1
0.1878950000  0.3883590000  0.6856610000  1  1  1
0.1813940000  0.4670610000  0.6918160000  1  1  1
0.1810680000  0.4638780000  0.7145790000  1  1  1
0.1883940000  0.3866110000  0.7160930000  1  1  1
0.1919530000  0.3755140000  0.7285620000  1  1  1
0.1802260000  0.4389410000  0.7350550000  1  1  1
0.1801710000  0.4416920000  0.7473340000  1  1  1
0.1918330000  0.3758540000  0.7538840000  1  1  1
0.1917890000  0.3759810000  0.7667850000  1  1  1
0.1801530000  0.4440150000  0.7734620000  1  1  1
0.1801520000  0.4444440000  0.7866670000  1  1  1
0.1914880000  0.3768490000  0.7933330000  1  1  1
0.1914880000  0.3768490000  0.8066670000  1  1  1
0.1801520000  0.4445830000  0.8133180000  1  1  1
0.1801520000  0.4445450000  0.8266910000  1  1  1
0.1910640000  0.3780960000  0.8331470000  1  1  1
0.1914730000  0.3768920000  0.8462490000  1  1  1
0.1801520000  0.4444150000  0.8532020000  1  1  1
0.1801600000  0.4426420000  0.8661910000  1  1  1
0.1939630000  0.3700400000  0.8726360000  1  1  1
0.1952480000  0.3667660000  0.8848370000  1  1  1
0.1804360000  0.4336330000  0.8921540000  1  1  1
0.1807390000  0.4288800000  0.9043520000  1  1  1
0.1965270000  0.3636570000  0.9106900000  1  1  1
0.1922460000  0.3746850000  0.9232080000  1  1  1