%BLOCK LATTICE_CART
   2.805799707700000   0.000000000000000   0.000000000000000
   1.402899853850000   2.429893824799152   0.000000000000000
   0.000000000000003   0.000000000000002  46.029957324901467
%END BLOCK LATTICE_CART
%BLOCK POSITIONS_FRAC
    Al   0.000000000000000   0.000000000000000   0.000009295853153
    Al   0.333333333300000   0.333333333300000   0.049778391447901
    Al   0.666666666700000   0.666666666700000   0.099493731364942
    Al   0.000000000000000   0.000000000000000   0.149246504967819
    Al   0.333333333300000   0.333333333300000   0.199197535573997
    Al   0.833333333300000   0.833333333300000   0.250805582257121
    Al   0.166666666700000   0.166666666700000   0.300704430487695
    Al   0.500000000000000   0.500000000000000   0.350368897558991
    Al   0.833333333300000   0.833333333300000   0.400055540819123
    Al   0.166666666700000   0.166666666700000   0.450000364424936
    Al   0.833333333300000   0.833333333300000   0.499945174976521
    Al   0.500000000000000   0.500000000000000   0.549631726230685
    Al   0.166666666700000   0.166666666700000   0.599295997840362
    Al   0.833333333300000   0.833333333300000   0.649194594223375
    Al   0.333333333300000   0.333333333300000   0.700802404233415
    Al   1.000000000000000   1.000000000000000   0.750753221774914
    Al   0.666666666700000   0.666666666700000   0.800505833751958
    Al   0.333333333300000   0.333333333300000   0.850221040408475
    Al   0.000000000000000   0.000000000000000   0.899990014531257
    Al   0.666666666700000   0.666666666700000   0.949999624328345
%END BLOCK POSITIONS_FRAC
%BLOCK SPECIES_POT
    Al al_HC.lda.recpot                                                                       
%END BLOCK SPECIES_POT
%BLOCK ION_OPTIMIZATION
           0           0           1
           0           0           1
           0           0           1
           0           0           1
           0           0           1
           0           0           1
           0           0           1
           0           0           1
           0           0           1
           0           0           1
           0           0           1
           0           0           1
           0           0           1
           0           0           1
           0           0           1
           0           0           1
           0           0           1
           0           0           1
           0           0           1
           0           0           1
%END BLOCK ION_OPTIMIZATION
