%BLOCK LATTICE_CART
   2.805799707700000   0.000000000000000   0.000000000000000
   1.402899853850000   2.429893824799152   0.000000000000000
   0.000000000000003   0.000000000000002  51.431069770067040
%END BLOCK LATTICE_CART
%BLOCK POSITIONS_FRAC
    Al   0.000000000000000   0.000000000000000   0.999944473379146
    Al   0.333333333300000   0.333333333300000   0.045318195626530
    Al   0.666666666700000   0.666666666700000   0.090688193739796
    Al   0.000000000000000   0.000000000000000   0.136060434466641
    Al   0.333333333300000   0.333333333300000   0.181456196075125
    Al   0.000000000000000   0.000000000000000   0.226872179889315
    Al   0.566666666700000   0.566666666700000   0.273123342960490
    Al   0.900000000000000   0.900000000000000   0.318512155058510
    Al   0.233333333300000   0.233333333300000   0.363849895449107
    Al   0.566666666700000   0.566666666700000   0.409186013548559
    Al   0.900000000000000   0.900000000000000   0.454544821697302
    Al   0.566666666700000   0.566666666700000   0.499903705154093
    Al   0.233333333300000   0.233333333300000   0.545240001663441
    Al   0.900000000000000   0.900000000000000   0.590578020978531
    Al   0.566666666700000   0.566666666700000   0.635967151963280
    Al   0.000000000000000   0.000000000000000   0.682218646860810
    Al   0.333333333300000   0.333333333300000   0.727634974449455
    Al   0.000000000000000   0.000000000000000   0.773031048233802
    Al   0.666666666700000   0.666666666700000   0.818403521874228
    Al   0.333333333300000   0.333333333300000   0.863773694921336
    Al   1.000000000000000   1.000000000000000   0.909147504470259
    Al   0.666666666700000   0.666666666700000   0.954546006648650
%END BLOCK POSITIONS_FRAC
%BLOCK SPECIES_POT
    Al al.lda.recpot                                                                          
%END BLOCK SPECIES_POT
%BLOCK ION_OPTIMIZATION
           0           0           1
           0           0           1
           0           0           1
           0           0           1
           0           0           1
           0           0           1
           0           0           1
           0           0           1
           0           0           1
           0           0           1
           0           0           1
           0           0           1
           0           0           1
           0           0           1
           0           0           1
           0           0           1
           0           0           1
           0           0           1
           0           0           1
           0           0           1
           0           0           1
           0           0           1
%END BLOCK ION_OPTIMIZATION
