%BLOCK LATTICE_CART
3.824282422141    0.000000000000    0.000000000000    
0.000000000000    3.824282422141    0.000000000000    
0.000000000000    0.000000000000    21.633408270946    
%END BLOCK LATTICE_CART
%BLOCK POSITIONS_FRAC
Si    0.000000000000    0.000000000000    0.000000000000
Si    0.500000000000    0.000000000000    0.062500000000
Si    0.500000000000    0.500000000000    0.125000000000
Si    0.000000000000    0.500000000000    0.187500000000
Si    0.000000000000    0.000000000000    0.250000000000
Si    0.500000000000    0.000000000000    0.312500000000
Si    0.500000000000    0.500000000000    0.375000000000
Si    0.000000000000    0.500000000000    0.437500000000
Si    0.000000000000    0.000000000000    0.500000000000
%END BLOCK POSITIONS_FRAC
%BLOCK SPECIES_POT
Si si.lda.recpot
%END BLOCK SPECIES_POT
