ATOMIC_SPECIES
Al 26.981539 Al_ONCV_PBE-1.2.upf

LATTICE_CONSTANT
7.4984327225523  // add lattice constant

LATTICE_VECTORS
0.707106781187    0.000000000000    0.000000000000    
0.353553390593    0.612372435696    0.000000000000    
0.000000000000    0.000000000000    12.701705922171765    

ATOMIC_POSITIONS
Direct

Al
0.0
22
    -2.7003221588E-30 -2.7670243925E-30  1.6928149162E-04 1 1 1
     3.3333333330E-01  3.3333333330E-01  4.5377376920E-02 1 1 1
     6.6666666670E-01  6.6666666670E-01  9.0865723344E-02 1 1 1
    -2.6870270604E-30 -2.7537292941E-30  1.3600115678E-01 1 1 1
     3.3333333330E-01  3.3333333330E-01  1.8147181991E-01 1 1 1
    -2.6866459956E-30 -2.7533482293E-30  2.2726451965E-01 1 1 1
     4.0000000000E-01  4.0000000000E-01  2.7317278967E-01 1 1 1
     7.3333333330E-01  7.3333333330E-01  3.1832511772E-01 1 1 1
     6.6666666700E-02  6.6666666700E-02  3.6378164060E-01 1 1 1
     4.0000000000E-01  4.0000000000E-01  4.0896754698E-01 1 1 1
     7.3333333330E-01  7.3333333330E-01  4.5454545455E-01 1 1 1
     4.0000000000E-01  4.0000000000E-01  5.0012336212E-01 1 1 1
     6.6666666700E-02  6.6666666700E-02  5.4530926850E-01 1 1 1
     7.3333333330E-01  7.3333333330E-01  5.9076579138E-01 1 1 1
     4.0000000000E-01  4.0000000000E-01  6.3591811943E-01 1 1 1
    -2.6866459956E-30 -2.7533482293E-30  6.8182638945E-01 1 1 1
     3.3333333330E-01  3.3333333330E-01  7.2761908919E-01 1 1 1
    -2.6870270604E-30 -2.7537292941E-30  7.7308975232E-01 1 1 1
     6.6666666670E-01  6.6666666670E-01  8.1822518576E-01 1 1 1
     3.3333333330E-01  3.3333333330E-01  8.6371353218E-01 1 1 1
    -2.7003221588E-30 -2.7670243925E-30  9.0892162761E-01 1 1 1
     6.6666666670E-01  6.6666666670E-01  9.5454545455E-01 1 1 1
