%BLOCK LATTICE_CART
   3.112063224948312   0.000081767976976   0.000000015053254
  -1.555960767545031   2.695166639972344  -0.000000032911956
   0.000000019308472  -0.000000017410793   5.066436940753458
%END BLOCK LATTICE_CART
%BLOCK POSITIONS_FRAC
    Mg   0.000000000000000   0.000000000000000   0.000000000000000
    Mg   0.666666666667000   0.333333333333000   0.500000000000000
%END BLOCK POSITIONS_FRAC
%BLOCK SPECIES_POT
    Mg mg.lda.recpot                                                                          
%END BLOCK SPECIES_POT
