ATOMIC_SPECIES
In 49 in.gga.psp blps
As 33 as.gga.psp blps

LATTICE_CONSTANT
11.647894717813344  // add lattice constant

LATTICE_VECTORS
0.000000000000    0.500000000000    0.500000000000    
0.500000000000    0.000000000000    0.500000000000    
0.500000000000    0.500000000000    0.000000000000    

ATOMIC_POSITIONS
Direct

In
0.0
1
    0.000000000000    0.000000000000    0.000000000000 1 1 1
As
0.0
1
    0.250000000000    0.250000000000    0.250000000000 1 1 1
