ATOMIC_SPECIES
Al 13 al.gga.psp blps

LATTICE_CONSTANT
5.390160052580858  // add lattice constant

LATTICE_VECTORS
1.000000000000    0.000000000000    0.000000000000    
-0.500000000000    0.866025403784    0.000000000000    
0.000000000000    0.000000000000    1.640923551200    

ATOMIC_POSITIONS
Direct

Al
0.0
2
    0.000000000000    0.000000000000    0.000000000000 1 1 1
    0.666666666667    0.333333333333    0.500000000000 1 1 1
