ATOMIC_SPECIES
Al 26.981539 al.lda.lps

LATTICE_CONSTANT
7.50241114482312  // add lattice constant

LATTICE_VECTORS
0.707106781187    0.000000000000    0.000000000000    
0.353553390593    0.612372435696    0.000000000000    
0.000000000000    0.000000000000    11.547005383792515

ATOMIC_POSITIONS
Direct

Al
0.0
20
    3.6376318210E-32  3.6376318210E-32  1.5863038246E-04 1 1 1
    3.3333333333E-01  3.3333333333E-01  4.9993144807E-02 1 1 1
    6.6666666667E-01  6.6666666667E-01  1.0006587529E-01 1 1 1
    3.6376318210E-32  3.6376318210E-32  1.4986882423E-01 1 1 1
    3.3333333333E-01  3.3333333333E-01  1.9992912727E-01 1 1 1
    1.0000000000E+00  1.0000000000E+00  2.5015735847E-01 1 1 1
    3.3333333333E-01  3.3333333333E-01  3.0012174883E-01 1 1 1
    6.6666666667E-01  6.6666666667E-01  3.4995816525E-01 1 1 1
    1.0000000000E+00  1.0000000000E+00  3.9982912306E-01 1 1 1
    3.3333333333E-01  3.3333333333E-01  4.5000000000E-01 1 1 1
    1.0000000000E+00  1.0000000000E+00  5.0017087694E-01 1 1 1
    6.6666666667E-01  6.6666666667E-01  5.5004183475E-01 1 1 1
    3.3333333333E-01  3.3333333333E-01  5.9987825117E-01 1 1 1
    1.0000000000E+00  1.0000000000E+00  6.4984264153E-01 1 1 1
    3.3333333333E-01  3.3333333333E-01  7.0007087273E-01 1 1 1
    3.6376318210E-32  3.6376318210E-32  7.5013117577E-01 1 1 1
    6.6666666667E-01  6.6666666667E-01  7.9993412471E-01 1 1 1
    3.3333333333E-01  3.3333333333E-01  8.5000685519E-01 1 1 1
    3.6376318210E-32  3.6376318210E-32  8.9984136962E-01 1 1 1
    6.6666666667E-01  6.6666666667E-01  9.5000000000E-01 1 1 1
