%BLOCK LATTICE_CART
   0.001872689559812   2.196781667724705   2.196781660372200
   2.196781633520318   0.001872644983542   2.196781670665968
   2.196781633776510   2.196781678274665   0.001872652354949
%END BLOCK LATTICE_CART
%BLOCK POSITIONS_FRAC
    Mg   0.000000000000000   0.000000000000000   0.000000000000000
%END BLOCK POSITIONS_FRAC
%BLOCK SPECIES_POT
    Mg mg.lda.recpot                                                                          
%END BLOCK SPECIES_POT
