ATOMIC_SPECIES
Al 13 al.lda.lps blps

LATTICE_CONSTANT
7.619305301035974  // add lattice constant

LATTICE_VECTORS
0.707106781187    0.000000000000    0.000000000000    
0.000000000000    1.000000000000    0.000000000000    
0.000000000000    0.000000000000    4.949747468306    

ATOMIC_POSITIONS
Direct

Al
0.0
7
    0.000000000000    0.000000000000    0.000000000000 1 1 1
    0.500000000000    0.500000000000    0.071428571429 1 1 1
    0.000000000000    0.000000000000    0.142857142857 1 1 1
    0.500000000000    0.500000000000    0.214285714286 1 1 1
    0.000000000000    0.000000000000    0.285714285714 1 1 1
    0.500000000000    0.500000000000    0.357142857143 1 1 1
    0.000000000000    0.000000000000    0.428571428571 1 1 1
