%BLOCK LATTICE_CART
3.089388109954    0.000000000000    0.000000000000    
-1.544694054977    2.675488585370    0.000000000000    
0.000000000000    0.000000000000    5.069449708421    
%END BLOCK LATTICE_CART
%BLOCK POSITIONS_FRAC
al    0.000000000000    0.000000000000    0.000000000000
al    0.666666666667    0.333333333333    0.500000000000
%END BLOCK POSITIONS_FRAC
%BLOCK SPECIES_POT
Al al_HC.lda.recpot
%END BLOCK SPECIES_POT
