%BLOCK LATTICE_CART
2.209098646246    -3.826271094230    0.000000000000    
2.209098646246    3.826271094230    0.000000000000    
0.000000000000    0.000000000000    7.250389474200    
%END BLOCK LATTICE_CART
%BLOCK POSITIONS_FRAC
In    0.666666666667    0.333333333333    0.500196250000
In    0.333333333333    0.666666666667    0.000196250000
P    0.666666666667    0.333333333333    0.874804750000
P    0.333333333333    0.666666666667    0.374804750000
%END BLOCK POSITIONS_FRAC
%BLOCK SPECIES_POT
In in.gga.recpot
P p.gga.recpot
%END BLOCK SPECIES_POT
