Transformation
0.529176965773
32.125341805842  0.000000000000  0.000000000000
0.000000000000  34.015067794421  0.000000000000
0.000000000000  0.000000000000  203.096667899266
C  
1000  
Direct
0.640785000000  0.481559000000  0.007681000000  
0.643435000000  0.427460000000  0.015269000000  
0.643795000000  0.432631000000  0.028264000000  
0.637667000000  0.495850000000  0.034177000000  
0.636268000000  0.501052000000  0.048257000000  
0.644087000000  0.440116000000  0.055006000000  
0.643703000000  0.431113000000  0.069559000000  
0.618536000000  0.544574000000  0.079344000000  
0.641017000000  0.480258000000  0.079858000000  
0.643729000000  0.431535000000  0.091366000000  
0.644093000000  0.448476000000  0.105757000000  
0.628612000000  0.523302000000  0.110472000000  
0.613676000000  0.553061000000  0.124251000000  
0.644132000000  0.444532000000  0.136671000000  
0.643857000000  0.433776000000  0.149065000000  
0.636241000000  0.501149000000  0.155307000000  
0.634594000000  0.506674000000  0.167313000000  
0.644098000000  0.440716000000  0.174407000000  
0.644132000000  0.444398000000  0.187353000000  
0.632564000000  0.512825000000  0.193486000000  
0.632178000000  0.513925000000  0.206738000000  
0.644098000000  0.448203000000  0.213254000000  
0.644116000000  0.447030000000  0.226361000000  
0.633457000000  0.510195000000  0.232846000000  
0.634893000000  0.505711000000  0.245199000000  
0.644081000000  0.439851000000  0.251565000000  
0.644051000000  0.450220000000  0.263503000000  
0.626246000000  0.528878000000  0.265163000000  
0.625293000000  0.531004000000  0.287503000000  
0.643717000000  0.457550000000  0.292730000000  
0.643979000000  0.452395000000  0.306775000000  
0.631389000000  0.516121000000  0.313767000000  
0.632517000000  0.512961000000  0.327328000000  
0.644128000000  0.443244000000  0.333357000000  
0.643957000000  0.435941000000  0.346232000000  
0.638668000000  0.491753000000  0.354850000000  
0.616764000000  0.547772000000  0.385758000000  
0.644056000000  0.438832000000  0.368869000000  
0.644125000000  0.446182000000  0.383763000000  
0.635714000000  0.502980000000  0.389584000000  
0.634970000000  0.505459000000  0.404613000000  
0.643996000000  0.436945000000  0.411878000000  
0.644087000000  0.440128000000  0.426461000000  
0.632353000000  0.513430000000  0.433061000000  
0.630795000000  0.517724000000  0.447002000000  
0.643749000000  0.457043000000  0.453727000000  
0.643732000000  0.457307000000  0.466656000000  
0.630124000000  0.519488000000  0.473783000000  
0.631899000000  0.514712000000  0.487049000000  
0.644130000000  0.445366000000  0.493026000000  
0.644126000000  0.442889000000  0.506910000000  
0.633382000000  0.510422000000  0.513932000000  
0.633659000000  0.509587000000  0.527695000000  
0.644068000000  0.439297000000  0.534496000000  
0.643980000000  0.436516000000  0.549143000000  
0.633787000000  0.509195000000  0.555479000000  
0.628557000000  0.523438000000  0.569656000000  
0.641264000000  0.478817000000  0.580512000000  
0.640481000000  0.405698000000  0.581065000000  
0.624214000000  0.533341000000  0.592185000000  
0.629641000000  0.520730000000  0.606458000000  
0.644106000000  0.447689000000  0.612356000000  
0.644130000000  0.445379000000  0.626549000000  
0.632655000000  0.512563000000  0.633774000000  
0.633138000000  0.511149000000  0.646839000000  
0.644131000000  0.444112000000  0.653273000000  
0.644132000000  0.444304000000  0.666644000000  
0.632789000000  0.512172000000  0.673322000000  
0.632751000000  0.512283000000  0.686675000000  
0.644131000000  0.444998000000  0.693391000000  
0.644130000000  0.445386000000  0.706759000000  
0.631761000000  0.515096000000  0.713576000000  
0.631405000000  0.516076000000  0.726864000000  
0.644114000000  0.447173000000  0.733557000000  
0.644113000000  0.447203000000  0.746702000000  
0.631756000000  0.515109000000  0.753650000000  
0.632636000000  0.512617000000  0.767110000000  
0.644129000000  0.445577000000  0.773418000000  
0.644132000000  0.444736000000  0.786783000000  
0.632947000000  0.511713000000  0.793410000000  
0.632852000000  0.511989000000  0.806663000000  
0.644132000000  0.444447000000  0.813298000000  
0.644131000000  0.443835000000  0.826525000000  
0.632849000000  0.511998000000  0.833363000000  
0.632967000000  0.511651000000  0.846578000000  
0.644126000000  0.442867000000  0.853168000000  
0.644126000000  0.442850000000  0.865987000000  
0.632185000000  0.513906000000  0.873127000000  
0.632766000000  0.512240000000  0.886652000000  
0.644103000000  0.447915000000  0.892054000000  
0.643921000000  0.435111000000  0.905139000000  
0.636899000000  0.498771000000  0.913988000000  
0.633554000000  0.509903000000  0.928340000000  
0.642502000000  0.470394000000  0.939207000000  
0.639958000000  0.403035000000  0.940283000000  
0.627195000000  0.526694000000  0.950071000000  
0.629923000000  0.520009000000  0.964026000000  
0.643559000000  0.459845000000  0.970991000000  
0.639718000000  0.487016000000  0.984984000000  
0.644068000000  0.449597000000  0.994782000000  
0.583050000000  0.592742000000  0.000014000000  
0.616203000000  0.548759000000  0.011313000000  
0.612649000000  0.554747000000  0.028322000000  
0.520158000000  0.638562000000  0.038846000000  
0.575385000000  0.600271000000  0.039236000000  
0.606980000000  0.563479000000  0.052003000000  
0.590023000000  0.585222000000  0.067183000000  
0.535676000000  0.630096000000  0.071538000000  
0.537057000000  0.629267000000  0.085552000000  
0.589989000000  0.585260000000  0.089753000000  
0.597494000000  0.576325000000  0.103316000000  
0.554178000000  0.617855000000  0.110812000000  
0.564961000000  0.609453000000  0.122466000000  
0.628797000000  0.522848000000  0.134590000000  
0.613136000000  0.553951000000  0.147359000000  
0.557334000000  0.615501000000  0.152149000000  
0.551315000000  0.619918000000  0.165999000000  
0.601752000000  0.570799000000  0.173431000000  
0.600173000000  0.572892000000  0.186571000000  
0.549458000000  0.621222000000  0.192980000000  
0.548419000000  0.621940000000  0.206562000000  
0.599434000000  0.573853000000  0.213263000000  
0.600287000000  0.572742000000  0.226596000000  
0.549725000000  0.621036000000  0.233575000000  
0.553706000000  0.618199000000  0.246949000000  
0.611184000000  0.557093000000  0.252499000000  
0.610346000000  0.558406000000  0.274750000000  
0.555135000000  0.617150000000  0.276406000000  
0.545872000000  0.623664000000  0.288512000000  
0.594932000000  0.579484000000  0.294873000000  
0.597070000000  0.576857000000  0.307499000000  
0.547123000000  0.622824000000  0.313941000000  
0.546281000000  0.623391000000  0.327064000000  
0.600085000000  0.573006000000  0.334225000000  
0.600041000000  0.573065000000  0.348523000000  
0.537701000000  0.628876000000  0.353934000000  
0.510460000000  0.643123000000  0.365598000000  
0.584223000000  0.591525000000  0.378483000000  
0.575846000000  0.599838000000  0.386871000000  
0.529955000000  0.633393000000  0.388023000000  
0.530216000000  0.633248000000  0.407378000000  
0.597692000000  0.576076000000  0.412607000000  
0.599655000000  0.573566000000  0.426491000000  
0.544609000000  0.624501000000  0.433621000000  
0.540561000000  0.627106000000  0.447176000000  
0.591671000000  0.583339000000  0.454036000000  
0.593033000000  0.581751000000  0.467988000000  
0.542400000000  0.625937000000  0.476959000000  
0.551796000000  0.619576000000  0.488991000000  
0.599787000000  0.573395000000  0.494389000000  
0.600999000000  0.571804000000  0.507466000000  
0.549514000000  0.621183000000  0.514344000000  
0.549554000000  0.621156000000  0.527139000000  
0.602368000000  0.569969000000  0.534125000000  
0.601298000000  0.571406000000  0.547478000000  
0.547356000000  0.622665000000  0.553626000000  
0.543391000000  0.625298000000  0.566525000000  
0.591270000000  0.583802000000  0.573823000000  
0.586807000000  0.588777000000  0.587199000000  
0.526417000000  0.635328000000  0.592547000000  
0.497472000000  0.648428000000  0.605368000000  
0.594791000000  0.579655000000  0.616428000000  
0.602135000000  0.570285000000  0.628420000000  
0.553325000000  0.618476000000  0.635068000000  
0.550557000000  0.620454000000  0.647301000000  
0.599663000000  0.573556000000  0.653777000000  
0.599754000000  0.573438000000  0.666667000000  
0.548271000000  0.622041000000  0.673378000000  
0.547843000000  0.622334000000  0.686704000000  
0.599201000000  0.574154000000  0.693396000000  
0.598766000000  0.574713000000  0.706921000000  
0.543787000000  0.625040000000  0.713618000000  
0.539933000000  0.627499000000  0.727051000000  
0.593885000000  0.580741000000  0.734051000000  
0.595714000000  0.578532000000  0.747428000000  
0.544587000000  0.624516000000  0.756473000000  
0.553315000000  0.618484000000  0.768453000000  
0.600835000000  0.572021000000  0.774047000000  
0.601510000000  0.571124000000  0.787051000000  
0.548807000000  0.621673000000  0.793890000000  
0.548518000000  0.621872000000  0.806732000000  
0.599754000000  0.573438000000  0.813333000000  
0.599744000000  0.573452000000  0.826673000000  
0.548260000000  0.622049000000  0.833322000000  
0.548220000000  0.622076000000  0.846707000000  
0.599583000000  0.573660000000  0.853323000000  
0.599563000000  0.573686000000  0.866747000000  
0.547720000000  0.622418000000  0.873665000000  
0.548086000000  0.622168000000  0.888125000000  
0.600531000000  0.572422000000  0.894460000000  
0.607909000000  0.562110000000  0.909203000000  
0.518494000000  0.639383000000  0.919984000000  
0.572522000000  0.602907000000  0.920173000000  
0.601678000000  0.570899000000  0.930856000000  
0.593158000000  0.581603000000  0.944813000000  
0.542467000000  0.625894000000  0.951682000000  
0.545434000000  0.623956000000  0.967315000000  
0.596474000000  0.577597000000  0.972369000000  
0.611449000000  0.556673000000  0.985666000000  
0.523635000000  0.636795000000  0.000651000000  
0.399653000000  0.663604000000  0.006833000000  
0.469767000000  0.656955000000  0.012111000000  
0.468959000000  0.657151000000  0.027922000000  
0.398113000000  0.663523000000  0.033188000000  
0.399213000000  0.663582000000  0.046234000000  
0.466966000000  0.657620000000  0.050600000000  
0.477387000000  0.654969000000  0.065532000000  
0.404627000000  0.663799000000  0.073157000000  
0.405771000000  0.663829000000  0.088176000000  
0.475879000000  0.655383000000  0.093715000000  
0.493532000000  0.649866000000  0.107696000000  
0.373602000000  0.660922000000  0.119820000000  
0.447315000000  0.661319000000  0.119296000000  
0.504188000000  0.645796000000  0.129660000000  
0.495762000000  0.649062000000  0.144104000000  
0.416161000000  0.663863000000  0.151026000000  
0.415385000000  0.663876000000  0.165235000000  
0.486598000000  0.652210000000  0.172168000000  
0.485329000000  0.652614000000  0.186043000000  
0.415054000000  0.663880000000  0.192389000000  
0.413415000000  0.663897000000  0.205865000000  
0.484075000000  0.653006000000  0.212970000000  
0.482291000000  0.653550000000  0.226640000000  
0.406465000000  0.663845000000  0.232813000000  
0.406072000000  0.663836000000  0.246473000000  
0.491411000000  0.650608000000  0.253988000000  
0.491649000000  0.650526000000  0.267372000000  
0.424828000000  0.663555000000  0.273424000000  
0.422259000000  0.663678000000  0.286502000000  
0.486217000000  0.652332000000  0.293646000000  
0.482288000000  0.653551000000  0.306813000000  
0.411314000000  0.663902000000  0.312796000000  
0.409639000000  0.663893000000  0.326164000000  
0.481719000000  0.653721000000  0.333188000000  
0.478257000000  0.654725000000  0.345735000000  
0.408321000000  0.663878000000  0.352210000000  
0.419936000000  0.663767000000  0.364197000000  
0.538131000000  0.628613000000  0.373829000000  
0.499931000000  0.647492000000  0.395170000000  
0.418095000000  0.663821000000  0.396699000000  
0.408507000000  0.663881000000  0.408774000000  
0.476542000000  0.655202000000  0.414866000000  
0.480201000000  0.654168000000  0.427105000000  
0.408658000000  0.663883000000  0.433507000000  
0.404410000000  0.663792000000  0.445457000000  
0.462594000000  0.658587000000  0.452643000000  
0.429583000000  0.663256000000  0.465556000000  
0.464696000000  0.658133000000  0.475294000000  
0.431207000000  0.663133000000  0.487980000000  
0.490006000000  0.651087000000  0.495466000000  
0.485961000000  0.652414000000  0.507694000000  
0.413557000000  0.663896000000  0.513868000000  
0.411789000000  0.663902000000  0.526871000000  
0.484465000000  0.652885000000  0.533682000000  
0.483205000000  0.653273000000  0.546606000000  
0.410152000000  0.663897000000  0.553147000000  
0.409319000000  0.663890000000  0.566102000000  
0.476604000000  0.655185000000  0.572551000000  
0.471858000000  0.656437000000  0.585257000000  
0.403788000000  0.663773000000  0.591580000000  
0.415070000000  0.663880000000  0.603676000000  
0.530111000000  0.633307000000  0.615081000000  
0.501470000000  0.646890000000  0.627710000000  
0.419094000000  0.663793000000  0.633060000000  
0.414125000000  0.663891000000  0.646608000000  
0.484983000000  0.652723000000  0.653636000000  
0.483912000000  0.653056000000  0.666794000000  
0.412388000000  0.663901000000  0.673326000000  
0.411327000000  0.663902000000  0.686735000000  
0.480810000000  0.653990000000  0.693378000000  
0.478408000000  0.654683000000  0.706642000000  
0.398328000000  0.663535000000  0.713503000000  
0.397233000000  0.663473000000  0.725854000000  
0.461387000000  0.658840000000  0.732816000000  
0.431989000000  0.663069000000  0.745756000000  
0.466545000000  0.657717000000  0.754813000000  
0.433245000000  0.662962000000  0.767738000000  
0.490586000000  0.650891000000  0.775031000000  
0.486901000000  0.652113000000  0.787304000000  
0.413704000000  0.663895000000  0.793671000000  
0.412120000000  0.663902000000  0.806747000000  
0.483550000000  0.653167000000  0.813385000000  
0.483570000000  0.653161000000  0.826667000000  
0.411953000000  0.663902000000  0.833297000000  
0.411765000000  0.663902000000  0.846667000000  
0.483247000000  0.653260000000  0.853408000000  
0.482696000000  0.653428000000  0.866987000000  
0.410189000000  0.663897000000  0.873843000000  
0.409870000000  0.663895000000  0.887275000000  
0.481994000000  0.653639000000  0.894668000000  
0.470171000000  0.656857000000  0.909029000000  
0.400461000000  0.663642000000  0.913623000000  
0.401713000000  0.663697000000  0.926832000000  
0.468565000000  0.657245000000  0.931106000000  
0.480351000000  0.654125000000  0.945920000000  
0.411745000000  0.663902000000  0.953201000000  
0.412173000000  0.663902000000  0.967037000000  
0.482215000000  0.653573000000  0.974149000000  
0.471389000000  0.656555000000  0.989072000000  
0.401195000000  0.663675000000  0.993591000000  
0.272258000000  0.619949000000  0.006774000000  
0.334094000000  0.651279000000  0.013320000000  
0.334009000000  0.651251000000  0.026770000000  
0.272053000000  0.619804000000  0.033196000000  
0.272305000000  0.619983000000  0.046748000000  
0.334384000000  0.651376000000  0.053111000000  
0.335523000000  0.651753000000  0.066825000000  
0.273074000000  0.620525000000  0.073258000000  
0.269571000000  0.618016000000  0.086751000000  
0.333251000000  0.650995000000  0.094578000000  
0.320902000000  0.646428000000  0.108671000000  
0.260713000000  0.611207000000  0.113136000000  
0.261799000000  0.612080000000  0.126126000000  
0.325304000000  0.648145000000  0.130641000000  
0.339623000000  0.653058000000  0.144719000000  
0.275115000000  0.621943000000  0.152512000000  
0.277456000000  0.623529000000  0.165836000000  
0.341416000000  0.653603000000  0.172062000000  
0.342624000000  0.653962000000  0.185461000000  
0.279369000000  0.624796000000  0.191957000000  
0.281257000000  0.626019000000  0.204556000000  
0.344304000000  0.654450000000  0.211396000000  
0.332981000000  0.650903000000  0.223477000000  
0.256903000000  0.608061000000  0.225123000000  
0.258703000000  0.609564000000  0.248959000000  
0.335330000000  0.651690000000  0.254200000000  
0.352144000000  0.656555000000  0.268653000000  
0.247616000000  0.599775000000  0.280145000000  
0.303988000000  0.638869000000  0.279911000000  
0.353384000000  0.656863000000  0.290785000000  
0.340494000000  0.653325000000  0.305195000000  
0.275327000000  0.622088000000  0.311512000000  
0.275360000000  0.622111000000  0.326054000000  
0.338322000000  0.652652000000  0.332710000000  
0.338912000000  0.652837000000  0.346355000000  
0.273932000000  0.621125000000  0.353183000000  
0.272588000000  0.620183000000  0.366940000000  
0.343264000000  0.654150000000  0.373933000000  
0.344819000000  0.654597000000  0.388178000000  
0.274684000000  0.621646000000  0.396790000000  
0.281098000000  0.625917000000  0.408867000000  
0.340759000000  0.653405000000  0.414742000000  
0.339991000000  0.653171000000  0.427066000000  
0.273289000000  0.620676000000  0.433797000000  
0.272926000000  0.620421000000  0.446385000000  
0.333906000000  0.651216000000  0.452018000000  
0.344167000000  0.654411000000  0.463775000000  
0.281161000000  0.625957000000  0.472514000000  
0.283311000000  0.627321000000  0.485858000000  
0.348850000000  0.655705000000  0.493093000000  
0.343161000000  0.654120000000  0.506613000000  
0.277085000000  0.623281000000  0.512705000000  
0.274059000000  0.621213000000  0.526381000000  
0.338804000000  0.652803000000  0.533461000000  
0.338247000000  0.652629000000  0.546348000000  
0.272310000000  0.619986000000  0.553034000000  
0.272616000000  0.620203000000  0.566300000000  
0.336053000000  0.651926000000  0.572763000000  
0.336559000000  0.652090000000  0.586053000000  
0.274379000000  0.621436000000  0.593023000000  
0.276655000000  0.622992000000  0.606319000000  
0.345757000000  0.654862000000  0.612478000000  
0.348256000000  0.655546000000  0.625970000000  
0.277567000000  0.623604000000  0.633053000000  
0.277609000000  0.623632000000  0.646369000000  
0.341175000000  0.653531000000  0.653066000000  
0.340875000000  0.653440000000  0.666596000000  
0.277798000000  0.623758000000  0.672979000000  
0.276358000000  0.622790000000  0.686358000000  
0.337729000000  0.652465000000  0.693270000000  
0.332398000000  0.650704000000  0.706684000000  
0.257543000000  0.608599000000  0.712043000000  
0.233284000000  0.584970000000  0.724890000000  
0.329372000000  0.649643000000  0.734791000000  
0.349754000000  0.655943000000  0.745157000000  
0.288610000000  0.630544000000  0.754040000000  
0.288083000000  0.630232000000  0.766449000000  
0.349723000000  0.655935000000  0.773223000000  
0.344405000000  0.654479000000  0.786841000000  
0.276751000000  0.623056000000  0.793379000000  
0.275230000000  0.622022000000  0.806757000000  
0.339627000000  0.653059000000  0.813388000000  
0.339856000000  0.653129000000  0.826627000000  
0.274600000000  0.621588000000  0.833389000000  
0.275060000000  0.621905000000  0.846945000000  
0.338544000000  0.652722000000  0.853482000000  
0.338302000000  0.652646000000  0.867278000000  
0.268625000000  0.617320000000  0.874835000000  
0.271459000000  0.619380000000  0.888548000000  
0.336630000000  0.652113000000  0.894185000000  
0.338006000000  0.652553000000  0.907670000000  
0.277235000000  0.623382000000  0.914770000000  
0.279500000000  0.624882000000  0.927993000000  
0.338733000000  0.652781000000  0.933655000000  
0.341011000000  0.653481000000  0.946946000000  
0.275599000000  0.622275000000  0.953818000000  
0.275237000000  0.622027000000  0.966803000000  
0.339277000000  0.652951000000  0.973505000000  
0.336642000000  0.652117000000  0.986737000000  
0.272647000000  0.620224000000  0.993175000000  
0.190771000000  0.512261000000  0.006667000000  
0.222834000000  0.572205000000  0.013227000000  
0.222775000000  0.572128000000  0.026655000000  
0.190533000000  0.511567000000  0.033224000000  
0.190635000000  0.511865000000  0.046313000000  
0.224218000000  0.574012000000  0.053110000000  
0.223538000000  0.573128000000  0.066245000000  
0.191333000000  0.513873000000  0.071873000000  
0.188029000000  0.503702000000  0.083621000000  
0.216487000000  0.563388000000  0.092567000000  
0.214047000000  0.559737000000  0.105964000000  
0.186579000000  0.498582000000  0.112977000000  
0.188450000000  0.505101000000  0.126951000000  
0.219577000000  0.567796000000  0.132946000000  
0.222536000000  0.571812000000  0.146362000000  
0.190812000000  0.512382000000  0.153331000000  
0.191345000000  0.513908000000  0.166090000000  
0.225884000000  0.576135000000  0.172651000000  
0.226295000000  0.576652000000  0.185471000000  
0.193992000000  0.520993000000  0.191416000000  
0.192064000000  0.515912000000  0.203778000000  
0.234299000000  0.586112000000  0.211606000000  
0.232447000000  0.584016000000  0.234880000000  
0.190611000000  0.511795000000  0.236955000000  
0.188392000000  0.504912000000  0.249236000000  
0.218055000000  0.565653000000  0.256283000000  
0.213909000000  0.559525000000  0.269590000000  
0.186939000000  0.499900000000  0.274210000000  
0.187219000000  0.500904000000  0.286808000000  
0.215707000000  0.562239000000  0.291175000000  
0.223603000000  0.573214000000  0.305333000000  
0.190779000000  0.512286000000  0.312958000000  
0.191182000000  0.513446000000  0.326420000000  
0.223727000000  0.573374000000  0.332922000000  
0.223294000000  0.572810000000  0.346404000000  
0.189726000000  0.509147000000  0.352993000000  
0.188604000000  0.505607000000  0.365259000000  
0.213531000000  0.558944000000  0.372699000000  
0.198414000000  0.531394000000  0.385247000000  
0.214276000000  0.560086000000  0.394666000000  
0.198148000000  0.530809000000  0.407377000000  
0.228352000000  0.579186000000  0.415044000000  
0.225112000000  0.575157000000  0.427309000000  
0.190468000000  0.511374000000  0.433760000000  
0.190181000000  0.510523000000  0.446921000000  
0.222871000000  0.572254000000  0.453259000000  
0.224755000000  0.574701000000  0.466328000000  
0.191775000000  0.515113000000  0.473402000000  
0.192607000000  0.517384000000  0.486108000000  
0.228099000000  0.578879000000  0.492637000000  
0.227375000000  0.577992000000  0.505667000000  
0.194406000000  0.522036000000  0.511292000000  
0.190980000000  0.512867000000  0.523602000000  
0.221125000000  0.569920000000  0.532324000000  
0.219143000000  0.567191000000  0.546006000000  
0.188329000000  0.504704000000  0.553174000000  
0.189615000000  0.508805000000  0.566690000000  
0.222564000000  0.571848000000  0.573091000000  
0.223251000000  0.572753000000  0.586607000000  
0.190744000000  0.512183000000  0.593335000000  
0.190875000000  0.512565000000  0.606644000000  
0.224637000000  0.574551000000  0.613355000000  
0.225106000000  0.575150000000  0.626381000000  
0.190704000000  0.512066000000  0.633397000000  
0.191218000000  0.513549000000  0.646955000000  
0.225650000000  0.575840000000  0.653247000000  
0.227309000000  0.577911000000  0.666523000000  
0.195135000000  0.523835000000  0.673164000000  
0.194973000000  0.523438000000  0.685739000000  
0.224671000000  0.574594000000  0.692320000000  
0.220400000000  0.568932000000  0.704569000000  
0.189447000000  0.508285000000  0.710510000000  
0.192470000000  0.517016000000  0.723152000000  
0.258297000000  0.609228000000  0.734116000000  
0.238159000000  0.590316000000  0.747101000000  
0.196027000000  0.525972000000  0.752891000000  
0.195408000000  0.524496000000  0.766623000000  
0.229854000000  0.580991000000  0.773240000000  
0.227980000000  0.578734000000  0.786948000000  
0.191852000000  0.515327000000  0.793523000000  
0.190466000000  0.511370000000  0.807020000000  
0.222057000000  0.571174000000  0.813613000000  
0.222163000000  0.571316000000  0.826749000000  
0.189730000000  0.509158000000  0.834083000000  
0.190911000000  0.512668000000  0.847433000000  
0.223618000000  0.573233000000  0.853870000000  
0.222241000000  0.571419000000  0.868627000000  
0.187288000000  0.501149000000  0.874612000000  
0.180634000000  0.467057000000  0.890232000000  
0.221730000000  0.570736000000  0.898637000000  
0.230777000000  0.582081000000  0.910249000000  
0.197515000000  0.529399000000  0.917521000000  
0.197165000000  0.528608000000  0.929131000000  
0.227292000000  0.577890000000  0.934930000000  
0.226471000000  0.576872000000  0.947450000000  
0.191310000000  0.513809000000  0.953967000000  
0.190709000000  0.512083000000  0.966756000000  
0.223726000000  0.573374000000  0.973456000000  
0.223334000000  0.572862000000  0.986600000000  
0.190760000000  0.512229000000  0.993318000000  
0.190820000000  0.376486000000  0.006616000000  
0.179398000000  0.444612000000  0.013294000000  
0.179398000000  0.444420000000  0.026645000000  
0.190578000000  0.377191000000  0.033318000000  
0.190213000000  0.378269000000  0.046515000000  
0.179403000000  0.445949000000  0.052919000000  
0.179441000000  0.448698000000  0.065350000000  
0.186862000000  0.389268000000  0.073062000000  
0.187395000000  0.387365000000  0.096130000000  
0.180870000000  0.419775000000  0.085546000000  
0.180506000000  0.423033000000  0.108376000000  
0.193290000000  0.369701000000  0.116356000000  
0.191519000000  0.374489000000  0.128155000000  
0.179427000000  0.440951000000  0.134080000000  
0.179400000000  0.443515000000  0.146921000000  
0.191032000000  0.375873000000  0.153749000000  
0.190531000000  0.377328000000  0.166640000000  
0.179420000000  0.447471000000  0.172878000000  
0.179557000000  0.452577000000  0.185138000000  
0.184669000000  0.397965000000  0.192791000000  
0.183734000000  0.402244000000  0.215598000000  
0.179664000000  0.433931000000  0.206181000000  
0.179750000000  0.432362000000  0.229016000000  
0.191763000000  0.373808000000  0.236020000000  
0.190681000000  0.376890000000  0.248257000000  
0.179408000000  0.442401000000  0.254799000000  
0.179445000000  0.440030000000  0.267678000000  
0.190209000000  0.378282000000  0.273507000000  
0.190835000000  0.376440000000  0.286864000000  
0.179421000000  0.441334000000  0.293326000000  
0.179400000000  0.443401000000  0.306618000000  
0.190586000000  0.377167000000  0.313356000000  
0.190584000000  0.377174000000  0.326709000000  
0.179398000000  0.444161000000  0.333262000000  
0.179401000000  0.443297000000  0.346415000000  
0.192738000000  0.371157000000  0.353321000000  
0.193059000000  0.370305000000  0.366393000000  
0.179535000000  0.436910000000  0.372066000000  
0.179422000000  0.447609000000  0.383641000000  
0.190214000000  0.378268000000  0.393267000000  
0.188693000000  0.382996000000  0.406243000000  
0.179466000000  0.449764000000  0.412953000000  
0.179398000000  0.445036000000  0.426927000000  
0.193042000000  0.370351000000  0.434240000000  
0.192280000000  0.372389000000  0.448005000000  
0.179409000000  0.442291000000  0.453972000000  
0.179409000000  0.446592000000  0.467390000000  
0.189515000000  0.380394000000  0.474788000000  
0.188103000000  0.384936000000  0.487755000000  
0.179560000000  0.452641000000  0.493188000000  
0.179907000000  0.458966000000  0.505429000000  
0.182873000000  0.406631000000  0.513364000000  
0.183631000000  0.402745000000  0.534722000000  
0.179487000000  0.438370000000  0.525364000000  
0.180093000000  0.427480000000  0.547625000000  
0.193380000000  0.369465000000  0.554727000000  
0.192874000000  0.370795000000  0.566897000000  
0.179414000000  0.441815000000  0.573631000000  
0.179400000000  0.443478000000  0.586717000000  
0.191101000000  0.375675000000  0.593524000000  
0.190930000000  0.376166000000  0.606671000000  
0.179398000000  0.444444000000  0.613333000000  
0.179398000000  0.444407000000  0.626840000000  
0.191053000000  0.375812000000  0.633739000000  
0.190992000000  0.375987000000  0.648320000000  
0.179403000000  0.445976000000  0.654603000000  
0.179881000000  0.458587000000  0.668714000000  
0.202765000000  0.348530000000  0.680111000000  
0.182420000000  0.409165000000  0.679755000000  
0.179854000000  0.458199000000  0.690284000000  
0.179424000000  0.447749000000  0.704353000000  
0.189190000000  0.381407000000  0.710997000000  
0.188713000000  0.382931000000  0.725895000000  
0.179588000000  0.453337000000  0.731915000000  
0.179820000000  0.457676000000  0.746128000000  
0.187613000000  0.386606000000  0.754141000000  
0.184743000000  0.397646000000  0.768932000000  
0.180060000000  0.461005000000  0.773504000000  
0.179902000000  0.458899000000  0.786983000000  
0.186806000000  0.389471000000  0.791259000000  
0.193331000000  0.369594000000  0.806160000000  
0.179686000000  0.433516000000  0.814076000000  
0.179633000000  0.434563000000  0.828135000000  
0.194786000000  0.365909000000  0.838334000000  
0.187584000000  0.386705000000  0.850314000000  
0.179511000000  0.451298000000  0.854158000000  
0.179415000000  0.447131000000  0.866423000000  
0.189332000000  0.380962000000  0.870126000000  
0.192039000000  0.373045000000  0.881027000000  
0.182408000000  0.409235000000  0.889441000000  
0.186099000000  0.496770000000  0.898164000000  
0.181675000000  0.475091000000  0.912759000000  
0.182156000000  0.410729000000  0.925451000000  
0.180057000000  0.460960000000  0.934388000000  
0.179491000000  0.450665000000  0.947041000000  
0.189331000000  0.380963000000  0.952878000000  
0.190248000000  0.378167000000  0.966485000000  
0.179398000000  0.444476000000  0.973240000000  
0.179398000000  0.444164000000  0.986662000000  
0.190771000000  0.376628000000  0.993333000000  
0.275183000000  0.266899000000  0.006667000000  
0.223827000000  0.315384000000  0.013292000000  
0.223791000000  0.315430000000  0.026641000000  
0.273453000000  0.268098000000  0.033264000000  
0.271933000000  0.269170000000  0.046626000000  
0.221630000000  0.318287000000  0.053221000000  
0.221681000000  0.318219000000  0.067176000000  
0.281460000000  0.262740000000  0.072673000000  