ATOMIC_SPECIES
C 12.011 C_ONCV_PBE-1.0.upf

NUMERICAL_ORBITAL
C_gga_8au_60Ry_2s2p1d.orb

LATTICE_CONSTANT
1

LATTICE_VECTORS
32.1253418058417  0.00000000000000  0.000000000000000
0.00000000000000  34.0150677944206  0.000000000000000
0.00000000000000  0.00000000000000  203.0966678992656

ATOMIC_POSITIONS
Direct

C
0
1000
0.6407850000  0.4815590000  0.0076810000  1  1  1
0.6434350000  0.4274600000  0.0152690000  1  1  1
0.6437950000  0.4326310000  0.0282640000  1  1  1
0.6376670000  0.4958500000  0.0341770000  1  1  1
0.6362680000  0.5010520000  0.0482570000  1  1  1
0.6440870000  0.4401160000  0.0550060000  1  1  1
0.6437030000  0.4311130000  0.0695590000  1  1  1
0.6185360000  0.5445740000  0.0793440000  1  1  1
0.6410170000  0.4802580000  0.0798580000  1  1  1
0.6437290000  0.4315350000  0.0913660000  1  1  1
0.6440930000  0.4484760000  0.1057570000  1  1  1
0.6286120000  0.5233020000  0.1104720000  1  1  1
0.6136760000  0.5530610000  0.1242510000  1  1  1
0.6441320000  0.4445320000  0.1366710000  1  1  1
0.6438570000  0.4337760000  0.1490650000  1  1  1
0.6362410000  0.5011490000  0.1553070000  1  1  1
0.6345940000  0.5066740000  0.1673130000  1  1  1
0.6440980000  0.4407160000  0.1744070000  1  1  1
0.6441320000  0.4443980000  0.1873530000  1  1  1
0.6325640000  0.5128250000  0.1934860000  1  1  1
0.6321780000  0.5139250000  0.2067380000  1  1  1
0.6440980000  0.4482030000  0.2132540000  1  1  1
0.6441160000  0.4470300000  0.2263610000  1  1  1
0.6334570000  0.5101950000  0.2328460000  1  1  1
0.6348930000  0.5057110000  0.2451990000  1  1  1
0.6440810000  0.4398510000  0.2515650000  1  1  1
0.6440510000  0.4502200000  0.2635030000  1  1  1
0.6262460000  0.5288780000  0.2651630000  1  1  1
0.6252930000  0.5310040000  0.2875030000  1  1  1
0.6437170000  0.4575500000  0.2927300000  1  1  1
0.6439790000  0.4523950000  0.3067750000  1  1  1
0.6313890000  0.5161210000  0.3137670000  1  1  1
0.6325170000  0.5129610000  0.3273280000  1  1  1
0.6441280000  0.4432440000  0.3333570000  1  1  1
0.6439570000  0.4359410000  0.3462320000  1  1  1
0.6386680000  0.4917530000  0.3548500000  1  1  1
0.6167640000  0.5477720000  0.3857580000  1  1  1
0.6440560000  0.4388320000  0.3688690000  1  1  1
0.6441250000  0.4461820000  0.3837630000  1  1  1
0.6357140000  0.5029800000  0.3895840000  1  1  1
0.6349700000  0.5054590000  0.4046130000  1  1  1
0.6439960000  0.4369450000  0.4118780000  1  1  1
0.6440870000  0.4401280000  0.4264610000  1  1  1
0.6323530000  0.5134300000  0.4330610000  1  1  1
0.6307950000  0.5177240000  0.4470020000  1  1  1
0.6437490000  0.4570430000  0.4537270000  1  1  1
0.6437320000  0.4573070000  0.4666560000  1  1  1
0.6301240000  0.5194880000  0.4737830000  1  1  1
0.6318990000  0.5147120000  0.4870490000  1  1  1
0.6441300000  0.4453660000  0.4930260000  1  1  1
0.6441260000  0.4428890000  0.5069100000  1  1  1
0.6333820000  0.5104220000  0.5139320000  1  1  1
0.6336590000  0.5095870000  0.5276950000  1  1  1
0.6440680000  0.4392970000  0.5344960000  1  1  1
0.6439800000  0.4365160000  0.5491430000  1  1  1
0.6337870000  0.5091950000  0.5554790000  1  1  1
0.6285570000  0.5234380000  0.5696560000  1  1  1
0.6412640000  0.4788170000  0.5805120000  1  1  1
0.6404810000  0.4056980000  0.5810650000  1  1  1
0.6242140000  0.5333410000  0.5921850000  1  1  1
0.6296410000  0.5207300000  0.6064580000  1  1  1
0.6441060000  0.4476890000  0.6123560000  1  1  1
0.6441300000  0.4453790000  0.6265490000  1  1  1
0.6326550000  0.5125630000  0.6337740000  1  1  1
0.6331380000  0.5111490000  0.6468390000  1  1  1
0.6441310000  0.4441120000  0.6532730000  1  1  1
0.6441320000  0.4443040000  0.6666440000  1  1  1
0.6327890000  0.5121720000  0.6733220000  1  1  1
0.6327510000  0.5122830000  0.6866750000  1  1  1
0.6441310000  0.4449980000  0.6933910000  1  1  1
0.6441300000  0.4453860000  0.7067590000  1  1  1
0.6317610000  0.5150960000  0.7135760000  1  1  1
0.6314050000  0.5160760000  0.7268640000  1  1  1
0.6441140000  0.4471730000  0.7335570000  1  1  1
0.6441130000  0.4472030000  0.7467020000  1  1  1
0.6317560000  0.5151090000  0.7536500000  1  1  1
0.6326360000  0.5126170000  0.7671100000  1  1  1
0.6441290000  0.4455770000  0.7734180000  1  1  1
0.6441320000  0.4447360000  0.7867830000  1  1  1
0.6329470000  0.5117130000  0.7934100000  1  1  1
0.6328520000  0.5119890000  0.8066630000  1  1  1
0.6441320000  0.4444470000  0.8132980000  1  1  1
0.6441310000  0.4438350000  0.8265250000  1  1  1
0.6328490000  0.5119980000  0.8333630000  1  1  1
0.6329670000  0.5116510000  0.8465780000  1  1  1
0.6441260000  0.4428670000  0.8531680000  1  1  1
0.6441260000  0.4428500000  0.8659870000  1  1  1
0.6321850000  0.5139060000  0.8731270000  1  1  1
0.6327660000  0.5122400000  0.8866520000  1  1  1
0.6441030000  0.4479150000  0.8920540000  1  1  1
0.6439210000  0.4351110000  0.9051390000  1  1  1
0.6368990000  0.4987710000  0.9139880000  1  1  1
0.6335540000  0.5099030000  0.9283400000  1  1  1
0.6425020000  0.4703940000  0.9392070000  1  1  1
0.6399580000  0.4030350000  0.9402830000  1  1  1
0.6271950000  0.5266940000  0.9500710000  1  1  1
0.6299230000  0.5200090000  0.9640260000  1  1  1
0.6435590000  0.4598450000  0.9709910000  1  1  1
0.6397180000  0.4870160000  0.9849840000  1  1  1
0.6440680000  0.4495970000  0.9947820000  1  1  1
0.5830500000  0.5927420000  0.0000140000  1  1  1
0.6162030000  0.5487590000  0.0113130000  1  1  1
0.6126490000  0.5547470000  0.0283220000  1  1  1
0.5201580000  0.6385620000  0.0388460000  1  1  1
0.5753850000  0.6002710000  0.0392360000  1  1  1
0.6069800000  0.5634790000  0.0520030000  1  1  1
0.5900230000  0.5852220000  0.0671830000  1  1  1
0.5356760000  0.6300960000  0.0715380000  1  1  1
0.5370570000  0.6292670000  0.0855520000  1  1  1
0.5899890000  0.5852600000  0.0897530000  1  1  1
0.5974940000  0.5763250000  0.1033160000  1  1  1
0.5541780000  0.6178550000  0.1108120000  1  1  1
0.5649610000  0.6094530000  0.1224660000  1  1  1
0.6287970000  0.5228480000  0.1345900000  1  1  1
0.6131360000  0.5539510000  0.1473590000  1  1  1
0.5573340000  0.6155010000  0.1521490000  1  1  1
0.5513150000  0.6199180000  0.1659990000  1  1  1
0.6017520000  0.5707990000  0.1734310000  1  1  1
0.6001730000  0.5728920000  0.1865710000  1  1  1
0.5494580000  0.6212220000  0.1929800000  1  1  1
0.5484190000  0.6219400000  0.2065620000  1  1  1
0.5994340000  0.5738530000  0.2132630000  1  1  1
0.6002870000  0.5727420000  0.2265960000  1  1  1
0.5497250000  0.6210360000  0.2335750000  1  1  1
0.5537060000  0.6181990000  0.2469490000  1  1  1
0.6111840000  0.5570930000  0.2524990000  1  1  1
0.6103460000  0.5584060000  0.2747500000  1  1  1
0.5551350000  0.6171500000  0.2764060000  1  1  1
0.5458720000  0.6236640000  0.2885120000  1  1  1
0.5949320000  0.5794840000  0.2948730000  1  1  1
0.5970700000  0.5768570000  0.3074990000  1  1  1
0.5471230000  0.6228240000  0.3139410000  1  1  1
0.5462810000  0.6233910000  0.3270640000  1  1  1
0.6000850000  0.5730060000  0.3342250000  1  1  1
0.6000410000  0.5730650000  0.3485230000  1  1  1
0.5377010000  0.6288760000  0.3539340000  1  1  1
0.5104600000  0.6431230000  0.3655980000  1  1  1
0.5842230000  0.5915250000  0.3784830000  1  1  1
0.5758460000  0.5998380000  0.3868710000  1  1  1
0.5299550000  0.6333930000  0.3880230000  1  1  1
0.5302160000  0.6332480000  0.4073780000  1  1  1
0.5976920000  0.5760760000  0.4126070000  1  1  1
0.5996550000  0.5735660000  0.4264910000  1  1  1
0.5446090000  0.6245010000  0.4336210000  1  1  1
0.5405610000  0.6271060000  0.4471760000  1  1  1
0.5916710000  0.5833390000  0.4540360000  1  1  1
0.5930330000  0.5817510000  0.4679880000  1  1  1
0.5424000000  0.6259370000  0.4769590000  1  1  1
0.5517960000  0.6195760000  0.4889910000  1  1  1
0.5997870000  0.5733950000  0.4943890000  1  1  1
0.6009990000  0.5718040000  0.5074660000  1  1  1
0.5495140000  0.6211830000  0.5143440000  1  1  1
0.5495540000  0.6211560000  0.5271390000  1  1  1
0.6023680000  0.5699690000  0.5341250000  1  1  1
0.6012980000  0.5714060000  0.5474780000  1  1  1
0.5473560000  0.6226650000  0.5536260000  1  1  1
0.5433910000  0.6252980000  0.5665250000  1  1  1
0.5912700000  0.5838020000  0.5738230000  1  1  1
0.5868070000  0.5887770000  0.5871990000  1  1  1
0.5264170000  0.6353280000  0.5925470000  1  1  1
0.4974720000  0.6484280000  0.6053680000  1  1  1
0.5947910000  0.5796550000  0.6164280000  1  1  1
0.6021350000  0.5702850000  0.6284200000  1  1  1
0.5533250000  0.6184760000  0.6350680000  1  1  1
0.5505570000  0.6204540000  0.6473010000  1  1  1
0.5996630000  0.5735560000  0.6537770000  1  1  1
0.5997540000  0.5734380000  0.6666670000  1  1  1
0.5482710000  0.6220410000  0.6733780000  1  1  1
0.5478430000  0.6223340000  0.6867040000  1  1  1
0.5992010000  0.5741540000  0.6933960000  1  1  1
0.5987660000  0.5747130000  0.7069210000  1  1  1
0.5437870000  0.6250400000  0.7136180000  1  1  1
0.5399330000  0.6274990000  0.7270510000  1  1  1
0.5938850000  0.5807410000  0.7340510000  1  1  1
0.5957140000  0.5785320000  0.7474280000  1  1  1
0.5445870000  0.6245160000  0.7564730000  1  1  1
0.5533150000  0.6184840000  0.7684530000  1  1  1
0.6008350000  0.5720210000  0.7740470000  1  1  1
0.6015100000  0.5711240000  0.7870510000  1  1  1
0.5488070000  0.6216730000  0.7938900000  1  1  1
0.5485180000  0.6218720000  0.8067320000  1  1  1
0.5997540000  0.5734380000  0.8133330000  1  1  1
0.5997440000  0.5734520000  0.8266730000  1  1  1
0.5482600000  0.6220490000  0.8333220000  1  1  1
0.5482200000  0.6220760000  0.8467070000  1  1  1
0.5995830000  0.5736600000  0.8533230000  1  1  1
0.5995630000  0.5736860000  0.8667470000  1  1  1
0.5477200000  0.6224180000  0.8736650000  1  1  1
0.5480860000  0.6221680000  0.8881250000  1  1  1
0.6005310000  0.5724220000  0.8944600000  1  1  1
0.6079090000  0.5621100000  0.9092030000  1  1  1
0.5184940000  0.6393830000  0.9199840000  1  1  1
0.5725220000  0.6029070000  0.9201730000  1  1  1
0.6016780000  0.5708990000  0.9308560000  1  1  1
0.5931580000  0.5816030000  0.9448130000  1  1  1
0.5424670000  0.6258940000  0.9516820000  1  1  1
0.5454340000  0.6239560000  0.9673150000  1  1  1
0.5964740000  0.5775970000  0.9723690000  1  1  1
0.6114490000  0.5566730000  0.9856660000  1  1  1
0.5236350000  0.6367950000  0.0006510000  1  1  1
0.3996530000  0.6636040000  0.0068330000  1  1  1
0.4697670000  0.6569550000  0.0121110000  1  1  1
0.4689590000  0.6571510000  0.0279220000  1  1  1
0.3981130000  0.6635230000  0.0331880000  1  1  1
0.3992130000  0.6635820000  0.0462340000  1  1  1
0.4669660000  0.6576200000  0.0506000000  1  1  1
0.4773870000  0.6549690000  0.0655320000  1  1  1
0.4046270000  0.6637990000  0.0731570000  1  1  1
0.4057710000  0.6638290000  0.0881760000  1  1  1
0.4758790000  0.6553830000  0.0937150000  1  1  1
0.4935320000  0.6498660000  0.1076960000  1  1  1
0.3736020000  0.6609220000  0.1198200000  1  1  1
0.4473150000  0.6613190000  0.1192960000  1  1  1
0.5041880000  0.6457960000  0.1296600000  1  1  1
0.4957620000  0.6490620000  0.1441040000  1  1  1
0.4161610000  0.6638630000  0.1510260000  1  1  1
0.4153850000  0.6638760000  0.1652350000  1  1  1
0.4865980000  0.6522100000  0.1721680000  1  1  1
0.4853290000  0.6526140000  0.1860430000  1  1  1
0.4150540000  0.6638800000  0.1923890000  1  1  1
0.4134150000  0.6638970000  0.2058650000  1  1  1
0.4840750000  0.6530060000  0.2129700000  1  1  1
0.4822910000  0.6535500000  0.2266400000  1  1  1
0.4064650000  0.6638450000  0.2328130000  1  1  1
0.4060720000  0.6638360000  0.2464730000  1  1  1
0.4914110000  0.6506080000  0.2539880000  1  1  1
0.4916490000  0.6505260000  0.2673720000  1  1  1
0.4248280000  0.6635550000  0.2734240000  1  1  1
0.4222590000  0.6636780000  0.2865020000  1  1  1
0.4862170000  0.6523320000  0.2936460000  1  1  1
0.4822880000  0.6535510000  0.3068130000  1  1  1
0.4113140000  0.6639020000  0.3127960000  1  1  1
0.4096390000  0.6638930000  0.3261640000  1  1  1
0.4817190000  0.6537210000  0.3331880000  1  1  1
0.4782570000  0.6547250000  0.3457350000  1  1  1
0.4083210000  0.6638780000  0.3522100000  1  1  1
0.4199360000  0.6637670000  0.3641970000  1  1  1
0.5381310000  0.6286130000  0.3738290000  1  1  1
0.4999310000  0.6474920000  0.3951700000  1  1  1
0.4180950000  0.6638210000  0.3966990000  1  1  1
0.4085070000  0.6638810000  0.4087740000  1  1  1
0.4765420000  0.6552020000  0.4148660000  1  1  1
0.4802010000  0.6541680000  0.4271050000  1  1  1
0.4086580000  0.6638830000  0.4335070000  1  1  1
0.4044100000  0.6637920000  0.4454570000  1  1  1
0.4625940000  0.6585870000  0.4526430000  1  1  1
0.4295830000  0.6632560000  0.4655560000  1  1  1
0.4646960000  0.6581330000  0.4752940000  1  1  1
0.4312070000  0.6631330000  0.4879800000  1  1  1
0.4900060000  0.6510870000  0.4954660000  1  1  1
0.4859610000  0.6524140000  0.5076940000  1  1  1
0.4135570000  0.6638960000  0.5138680000  1  1  1
0.4117890000  0.6639020000  0.5268710000  1  1  1
0.4844650000  0.6528850000  0.5336820000  1  1  1
0.4832050000  0.6532730000  0.5466060000  1  1  1
0.4101520000  0.6638970000  0.5531470000  1  1  1
0.4093190000  0.6638900000  0.5661020000  1  1  1
0.4766040000  0.6551850000  0.5725510000  1  1  1
0.4718580000  0.6564370000  0.5852570000  1  1  1
0.4037880000  0.6637730000  0.5915800000  1  1  1
0.4150700000  0.6638800000  0.6036760000  1  1  1
0.5301110000  0.6333070000  0.6150810000  1  1  1
0.5014700000  0.6468900000  0.6277100000  1  1  1
0.4190940000  0.6637930000  0.6330600000  1  1  1
0.4141250000  0.6638910000  0.6466080000  1  1  1
0.4849830000  0.6527230000  0.6536360000  1  1  1
0.4839120000  0.6530560000  0.6667940000  1  1  1
0.4123880000  0.6639010000  0.6733260000  1  1  1
0.4113270000  0.6639020000  0.6867350000  1  1  1
0.4808100000  0.6539900000  0.6933780000  1  1  1
0.4784080000  0.6546830000  0.7066420000  1  1  1
0.3983280000  0.6635350000  0.7135030000  1  1  1
0.3972330000  0.6634730000  0.7258540000  1  1  1
0.4613870000  0.6588400000  0.7328160000  1  1  1
0.4319890000  0.6630690000  0.7457560000  1  1  1
0.4665450000  0.6577170000  0.7548130000  1  1  1
0.4332450000  0.6629620000  0.7677380000  1  1  1
0.4905860000  0.6508910000  0.7750310000  1  1  1
0.4869010000  0.6521130000  0.7873040000  1  1  1
0.4137040000  0.6638950000  0.7936710000  1  1  1
0.4121200000  0.6639020000  0.8067470000  1  1  1
0.4835500000  0.6531670000  0.8133850000  1  1  1
0.4835700000  0.6531610000  0.8266670000  1  1  1
0.4119530000  0.6639020000  0.8332970000  1  1  1
0.4117650000  0.6639020000  0.8466670000  1  1  1
0.4832470000  0.6532600000  0.8534080000  1  1  1
0.4826960000  0.6534280000  0.8669870000  1  1  1
0.4101890000  0.6638970000  0.8738430000  1  1  1
0.4098700000  0.6638950000  0.8872750000  1  1  1
0.4819940000  0.6536390000  0.8946680000  1  1  1
0.4701710000  0.6568570000  0.9090290000  1  1  1
0.4004610000  0.6636420000  0.9136230000  1  1  1
0.4017130000  0.6636970000  0.9268320000  1  1  1
0.4685650000  0.6572450000  0.9311060000  1  1  1
0.4803510000  0.6541250000  0.9459200000  1  1  1
0.4117450000  0.6639020000  0.9532010000  1  1  1
0.4121730000  0.6639020000  0.9670370000  1  1  1
0.4822150000  0.6535730000  0.9741490000  1  1  1
0.4713890000  0.6565550000  0.9890720000  1  1  1
0.4011950000  0.6636750000  0.9935910000  1  1  1
0.2722580000  0.6199490000  0.0067740000  1  1  1
0.3340940000  0.6512790000  0.0133200000  1  1  1
0.3340090000  0.6512510000  0.0267700000  1  1  1
0.2720530000  0.6198040000  0.0331960000  1  1  1
0.2723050000  0.6199830000  0.0467480000  1  1  1
0.3343840000  0.6513760000  0.0531110000  1  1  1
0.3355230000  0.6517530000  0.0668250000  1  1  1
0.2730740000  0.6205250000  0.0732580000  1  1  1
0.2695710000  0.6180160000  0.0867510000  1  1  1
0.3332510000  0.6509950000  0.0945780000  1  1  1
0.3209020000  0.6464280000  0.1086710000  1  1  1
0.2607130000  0.6112070000  0.1131360000  1  1  1
0.2617990000  0.6120800000  0.1261260000  1  1  1
0.3253040000  0.6481450000  0.1306410000  1  1  1
0.3396230000  0.6530580000  0.1447190000  1  1  1
0.2751150000  0.6219430000  0.1525120000  1  1  1
0.2774560000  0.6235290000  0.1658360000  1  1  1
0.3414160000  0.6536030000  0.1720620000  1  1  1
0.3426240000  0.6539620000  0.1854610000  1  1  1
0.2793690000  0.6247960000  0.1919570000  1  1  1
0.2812570000  0.6260190000  0.2045560000  1  1  1
0.3443040000  0.6544500000  0.2113960000  1  1  1
0.3329810000  0.6509030000  0.2234770000  1  1  1
0.2569030000  0.6080610000  0.2251230000  1  1  1
0.2587030000  0.6095640000  0.2489590000  1  1  1
0.3353300000  0.6516900000  0.2542000000  1  1  1
0.3521440000  0.6565550000  0.2686530000  1  1  1
0.2476160000  0.5997750000  0.2801450000  1  1  1
0.3039880000  0.6388690000  0.2799110000  1  1  1
0.3533840000  0.6568630000  0.2907850000  1  1  1
0.3404940000  0.6533250000  0.3051950000  1  1  1
0.2753270000  0.6220880000  0.3115120000  1  1  1
0.2753600000  0.6221110000  0.3260540000  1  1  1
0.3383220000  0.6526520000  0.3327100000  1  1  1
0.3389120000  0.6528370000  0.3463550000  1  1  1
0.2739320000  0.6211250000  0.3531830000  1  1  1
0.2725880000  0.6201830000  0.3669400000  1  1  1
0.3432640000  0.6541500000  0.3739330000  1  1  1
0.3448190000  0.6545970000  0.3881780000  1  1  1
0.2746840000  0.6216460000  0.3967900000  1  1  1
0.2810980000  0.6259170000  0.4088670000  1  1  1
0.3407590000  0.6534050000  0.4147420000  1  1  1
0.3399910000  0.6531710000  0.4270660000  1  1  1
0.2732890000  0.6206760000  0.4337970000  1  1  1
0.2729260000  0.6204210000  0.4463850000  1  1  1
0.3339060000  0.6512160000  0.4520180000  1  1  1
0.3441670000  0.6544110000  0.4637750000  1  1  1
0.2811610000  0.6259570000  0.4725140000  1  1  1
0.2833110000  0.6273210000  0.4858580000  1  1  1
0.3488500000  0.6557050000  0.4930930000  1  1  1
0.3431610000  0.6541200000  0.5066130000  1  1  1
0.2770850000  0.6232810000  0.5127050000  1  1  1
0.2740590000  0.6212130000  0.5263810000  1  1  1
0.3388040000  0.6528030000  0.5334610000  1  1  1
0.3382470000  0.6526290000  0.5463480000  1  1  1
0.2723100000  0.6199860000  0.5530340000  1  1  1
0.2726160000  0.6202030000  0.5663000000  1  1  1
0.3360530000  0.6519260000  0.5727630000  1  1  1
0.3365590000  0.6520900000  0.5860530000  1  1  1
0.2743790000  0.6214360000  0.5930230000  1  1  1
0.2766550000  0.6229920000  0.6063190000  1  1  1
0.3457570000  0.6548620000  0.6124780000  1  1  1
0.3482560000  0.6555460000  0.6259700000  1  1  1
0.2775670000  0.6236040000  0.6330530000  1  1  1
0.2776090000  0.6236320000  0.6463690000  1  1  1
0.3411750000  0.6535310000  0.6530660000  1  1  1
0.3408750000  0.6534400000  0.6665960000  1  1  1
0.2777980000  0.6237580000  0.6729790000  1  1  1
0.2763580000  0.6227900000  0.6863580000  1  1  1
0.3377290000  0.6524650000  0.6932700000  1  1  1
0.3323980000  0.6507040000  0.7066840000  1  1  1
0.2575430000  0.6085990000  0.7120430000  1  1  1
0.2332840000  0.5849700000  0.7248900000  1  1  1
0.3293720000  0.6496430000  0.7347910000  1  1  1
0.3497540000  0.6559430000  0.7451570000  1  1  1
0.2886100000  0.6305440000  0.7540400000  1  1  1
0.2880830000  0.6302320000  0.7664490000  1  1  1
0.3497230000  0.6559350000  0.7732230000  1  1  1
0.3444050000  0.6544790000  0.7868410000  1  1  1
0.2767510000  0.6230560000  0.7933790000  1  1  1
0.2752300000  0.6220220000  0.8067570000  1  1  1
0.3396270000  0.6530590000  0.8133880000  1  1  1
0.3398560000  0.6531290000  0.8266270000  1  1  1
0.2746000000  0.6215880000  0.8333890000  1  1  1
0.2750600000  0.6219050000  0.8469450000  1  1  1
0.3385440000  0.6527220000  0.8534820000  1  1  1
0.3383020000  0.6526460000  0.8672780000  1  1  1
0.2686250000  0.6173200000  0.8748350000  1  1  1
0.2714590000  0.6193800000  0.8885480000  1  1  1
0.3366300000  0.6521130000  0.8941850000  1  1  1
0.3380060000  0.6525530000  0.9076700000  1  1  1
0.2772350000  0.6233820000  0.9147700000  1  1  1
0.2795000000  0.6248820000  0.9279930000  1  1  1
0.3387330000  0.6527810000  0.9336550000  1  1  1
0.3410110000  0.6534810000  0.9469460000  1  1  1
0.2755990000  0.6222750000  0.9538180000  1  1  1
0.2752370000  0.6220270000  0.9668030000  1  1  1
0.3392770000  0.6529510000  0.9735050000  1  1  1
0.3366420000  0.6521170000  0.9867370000  1  1  1
0.2726470000  0.6202240000  0.9931750000  1  1  1
0.1907710000  0.5122610000  0.0066670000  1  1  1
0.2228340000  0.5722050000  0.0132270000  1  1  1
0.2227750000  0.5721280000  0.0266550000  1  1  1
0.1905330000  0.5115670000  0.0332240000  1  1  1
0.1906350000  0.5118650000  0.0463130000  1  1  1
0.2242180000  0.5740120000  0.0531100000  1  1  1
0.2235380000  0.5731280000  0.0662450000  1  1  1
0.1913330000  0.5138730000  0.0718730000  1  1  1
0.1880290000  0.5037020000  0.0836210000  1  1  1
0.2164870000  0.5633880000  0.0925670000  1  1  1
0.2140470000  0.5597370000  0.1059640000  1  1  1
0.1865790000  0.4985820000  0.1129770000  1  1  1
0.1884500000  0.5051010000  0.1269510000  1  1  1
0.2195770000  0.5677960000  0.1329460000  1  1  1
0.2225360000  0.5718120000  0.1463620000  1  1  1
0.1908120000  0.5123820000  0.1533310000  1  1  1
0.1913450000  0.5139080000  0.1660900000  1  1  1
0.2258840000  0.5761350000  0.1726510000  1  1  1
0.2262950000  0.5766520000  0.1854710000  1  1  1
0.1939920000  0.5209930000  0.1914160000  1  1  1
0.1920640000  0.5159120000  0.2037780000  1  1  1
0.2342990000  0.5861120000  0.2116060000  1  1  1
0.2324470000  0.5840160000  0.2348800000  1  1  1
0.1906110000  0.5117950000  0.2369550000  1  1  1
0.1883920000  0.5049120000  0.2492360000  1  1  1
0.2180550000  0.5656530000  0.2562830000  1  1  1
0.2139090000  0.5595250000  0.2695900000  1  1  1
0.1869390000  0.4999000000  0.2742100000  1  1  1
0.1872190000  0.5009040000  0.2868080000  1  1  1
0.2157070000  0.5622390000  0.2911750000  1  1  1
0.2236030000  0.5732140000  0.3053330000  1  1  1
0.1907790000  0.5122860000  0.3129580000  1  1  1
0.1911820000  0.5134460000  0.3264200000  1  1  1
0.2237270000  0.5733740000  0.3329220000  1  1  1
0.2232940000  0.5728100000  0.3464040000  1  1  1
0.1897260000  0.5091470000  0.3529930000  1  1  1
0.1886040000  0.5056070000  0.3652590000  1  1  1
0.2135310000  0.5589440000  0.3726990000  1  1  1
0.1984140000  0.5313940000  0.3852470000  1  1  1
0.2142760000  0.5600860000  0.3946660000  1  1  1
0.1981480000  0.5308090000  0.4073770000  1  1  1
0.2283520000  0.5791860000  0.4150440000  1  1  1
0.2251120000  0.5751570000  0.4273090000  1  1  1
0.1904680000  0.5113740000  0.4337600000  1  1  1
0.1901810000  0.5105230000  0.4469210000  1  1  1
0.2228710000  0.5722540000  0.4532590000  1  1  1
0.2247550000  0.5747010000  0.4663280000  1  1  1
0.1917750000  0.5151130000  0.4734020000  1  1  1
0.1926070000  0.5173840000  0.4861080000  1  1  1
0.2280990000  0.5788790000  0.4926370000  1  1  1
0.2273750000  0.5779920000  0.5056670000  1  1  1
0.1944060000  0.5220360000  0.5112920000  1  1  1
0.1909800000  0.5128670000  0.5236020000  1  1  1
0.2211250000  0.5699200000  0.5323240000  1  1  1
0.2191430000  0.5671910000  0.5460060000  1  1  1
0.1883290000  0.5047040000  0.5531740000  1  1  1
0.1896150000  0.5088050000  0.5666900000  1  1  1
0.2225640000  0.5718480000  0.5730910000  1  1  1
0.2232510000  0.5727530000  0.5866070000  1  1  1
0.1907440000  0.5121830000  0.5933350000  1  1  1
0.1908750000  0.5125650000  0.6066440000  1  1  1
0.2246370000  0.5745510000  0.6133550000  1  1  1
0.2251060000  0.5751500000  0.6263810000  1  1  1
0.1907040000  0.5120660000  0.6333970000  1  1  1
0.1912180000  0.5135490000  0.6469550000  1  1  1
0.2256500000  0.5758400000  0.6532470000  1  1  1
0.2273090000  0.5779110000  0.6665230000  1  1  1
0.1951350000  0.5238350000  0.6731640000  1  1  1
0.1949730000  0.5234380000  0.6857390000  1  1  1
0.2246710000  0.5745940000  0.6923200000  1  1  1
0.2204000000  0.5689320000  0.7045690000  1  1  1
0.1894470000  0.5082850000  0.7105100000  1  1  1
0.1924700000  0.5170160000  0.7231520000  1  1  1
0.2582970000  0.6092280000  0.7341160000  1  1  1
0.2381590000  0.5903160000  0.7471010000  1  1  1
0.1960270000  0.5259720000  0.7528910000  1  1  1
0.1954080000  0.5244960000  0.7666230000  1  1  1
0.2298540000  0.5809910000  0.7732400000  1  1  1
0.2279800000  0.5787340000  0.7869480000  1  1  1
0.1918520000  0.5153270000  0.7935230000  1  1  1
0.1904660000  0.5113700000  0.8070200000  1  1  1
0.2220570000  0.5711740000  0.8136130000  1  1  1
0.2221630000  0.5713160000  0.8267490000  1  1  1
0.1897300000  0.5091580000  0.8340830000  1  1  1
0.1909110000  0.5126680000  0.8474330000  1  1  1
0.2236180000  0.5732330000  0.8538700000  1  1  1
0.2222410000  0.5714190000  0.8686270000  1  1  1
0.1872880000  0.5011490000  0.8746120000  1  1  1
0.1806340000  0.4670570000  0.8902320000  1  1  1
0.2217300000  0.5707360000  0.8986370000  1  1  1
0.2307770000  0.5820810000  0.9102490000  1  1  1
0.1975150000  0.5293990000  0.9175210000  1  1  1
0.1971650000  0.5286080000  0.9291310000  1  1  1
0.2272920000  0.5778900000  0.9349300000  1  1  1
0.2264710000  0.5768720000  0.9474500000  1  1  1
0.1913100000  0.5138090000  0.9539670000  1  1  1
0.1907090000  0.5120830000  0.9667560000  1  1  1
0.2237260000  0.5733740000  0.9734560000  1  1  1
0.2233340000  0.5728620000  0.9866000000  1  1  1
0.1907600000  0.5122290000  0.9933180000  1  1  1
0.1908200000  0.3764860000  0.0066160000  1  1  1
0.1793980000  0.4446120000  0.0132940000  1  1  1
0.1793980000  0.4444200000  0.0266450000  1  1  1
0.1905780000  0.3771910000  0.0333180000  1  1  1
0.1902130000  0.3782690000  0.0465150000  1  1  1
0.1794030000  0.4459490000  0.0529190000  1  1  1
0.1794410000  0.4486980000  0.0653500000  1  1  1
0.1868620000  0.3892680000  0.0730620000  1  1  1
0.1873950000  0.3873650000  0.0961300000  1  1  1
0.1808700000  0.4197750000  0.0855460000  1  1  1
0.1805060000  0.4230330000  0.1083760000  1  1  1
0.1932900000  0.3697010000  0.1163560000  1  1  1
0.1915190000  0.3744890000  0.1281550000  1  1  1
0.1794270000  0.4409510000  0.1340800000  1  1  1
0.1794000000  0.4435150000  0.1469210000  1  1  1
0.1910320000  0.3758730000  0.1537490000  1  1  1
0.1905310000  0.3773280000  0.1666400000  1  1  1
0.1794200000  0.4474710000  0.1728780000  1  1  1
0.1795570000  0.4525770000  0.1851380000  1  1  1
0.1846690000  0.3979650000  0.1927910000  1  1  1
0.1837340000  0.4022440000  0.2155980000  1  1  1
0.1796640000  0.4339310000  0.2061810000  1  1  1
0.1797500000  0.4323620000  0.2290160000  1  1  1
0.1917630000  0.3738080000  0.2360200000  1  1  1
0.1906810000  0.3768900000  0.2482570000  1  1  1
0.1794080000  0.4424010000  0.2547990000  1  1  1
0.1794450000  0.4400300000  0.2676780000  1  1  1
0.1902090000  0.3782820000  0.2735070000  1  1  1
0.1908350000  0.3764400000  0.2868640000  1  1  1
0.1794210000  0.4413340000  0.2933260000  1  1  1
0.1794000000  0.4434010000  0.3066180000  1  1  1
0.1905860000  0.3771670000  0.3133560000  1  1  1
0.1905840000  0.3771740000  0.3267090000  1  1  1
0.1793980000  0.4441610000  0.3332620000  1  1  1
0.1794010000  0.4432970000  0.3464150000  1  1  1
0.1927380000  0.3711570000  0.3533210000  1  1  1
0.1930590000  0.3703050000  0.3663930000  1  1  1
0.1795350000  0.4369100000  0.3720660000  1  1  1
0.1794220000  0.4476090000  0.3836410000  1  1  1
0.1902140000  0.3782680000  0.3932670000  1  1  1
0.1886930000  0.3829960000  0.4062430000  1  1  1
0.1794660000  0.4497640000  0.4129530000  1  1  1
0.1793980000  0.4450360000  0.4269270000  1  1  1
0.1930420000  0.3703510000  0.4342400000  1  1  1
0.1922800000  0.3723890000  0.4480050000  1  1  1
0.1794090000  0.4422910000  0.4539720000  1  1  1
0.1794090000  0.4465920000  0.4673900000  1  1  1
0.1895150000  0.3803940000  0.4747880000  1  1  1
0.1881030000  0.3849360000  0.4877550000  1  1  1
0.1795600000  0.4526410000  0.4931880000  1  1  1
0.1799070000  0.4589660000  0.5054290000  1  1  1
0.1828730000  0.4066310000  0.5133640000  1  1  1
0.1836310000  0.4027450000  0.5347220000  1  1  1
0.1794870000  0.4383700000  0.5253640000  1  1  1
0.1800930000  0.4274800000  0.5476250000  1  1  1
0.1933800000  0.3694650000  0.5547270000  1  1  1
0.1928740000  0.3707950000  0.5668970000  1  1  1
0.1794140000  0.4418150000  0.5736310000  1  1  1
0.1794000000  0.4434780000  0.5867170000  1  1  1
0.1911010000  0.3756750000  0.5935240000  1  1  1
0.1909300000  0.3761660000  0.6066710000  1  1  1
0.1793980000  0.4444440000  0.6133330000  1  1  1
0.1793980000  0.4444070000  0.6268400000  1  1  1
0.1910530000  0.3758120000  0.6337390000  1  1  1
0.1909920000  0.3759870000  0.6483200000  1  1  1
0.1794030000  0.4459760000  0.6546030000  1  1  1
0.1798810000  0.4585870000  0.6687140000  1  1  1
0.2027650000  0.3485300000  0.6801110000  1  1  1
0.1824200000  0.4091650000  0.6797550000  1  1  1
0.1798540000  0.4581990000  0.6902840000  1  1  1
0.1794240000  0.4477490000  0.7043530000  1  1  1
0.1891900000  0.3814070000  0.7109970000  1  1  1
0.1887130000  0.3829310000  0.7258950000  1  1  1
0.1795880000  0.4533370000  0.7319150000  1  1  1
0.1798200000  0.4576760000  0.7461280000  1  1  1
0.1876130000  0.3866060000  0.7541410000  1  1  1
0.1847430000  0.3976460000  0.7689320000  1  1  1
0.1800600000  0.4610050000  0.7735040000  1  1  1
0.1799020000  0.4588990000  0.7869830000  1  1  1
0.1868060000  0.3894710000  0.7912590000  1  1  1
0.1933310000  0.3695940000  0.8061600000  1  1  1
0.1796860000  0.4335160000  0.8140760000  1  1  1
0.1796330000  0.4345630000  0.8281350000  1  1  1
0.1947860000  0.3659090000  0.8383340000  1  1  1
0.1875840000  0.3867050000  0.8503140000  1  1  1
0.1795110000  0.4512980000  0.8541580000  1  1  1
0.1794150000  0.4471310000  0.8664230000  1  1  1
0.1893320000  0.3809620000  0.8701260000  1  1  1
0.1920390000  0.3730450000  0.8810270000  1  1  1
0.1824080000  0.4092350000  0.8894410000  1  1  1
0.1860990000  0.4967700000  0.8981640000  1  1  1
0.1816750000  0.4750910000  0.9127590000  1  1  1
0.1821560000  0.4107290000  0.9254510000  1  1  1