ATOMIC_SPECIES
Al 26.981539 al.lda.lps

LATTICE_CONSTANT
7.50241114482312  // add lattice constant

LATTICE_VECTORS
0.707106781187    0.000000000000    0.000000000000    
0.353553390593    0.612372435696    0.000000000000    
0.000000000000    0.000000000000    12.124355652982    

ATOMIC_POSITIONS
Direct

Al
0.0
21
    -8.1945032770E-17 -4.2294210462E-17 -4.5268022135E-17 1 1 1
     3.3333333333E-01  3.3333333333E-01  4.7619047619E-02 1 1 1
     6.6666666667E-01  6.6666666667E-01  9.5238095238E-02 1 1 1
    -8.1945032770E-17 -4.2294210462E-17  1.4285714286E-01 1 1 1
     3.3333333333E-01  3.3333333333E-01  1.9047619048E-01 1 1 1
     6.6666666667E-01  6.6666666667E-01  2.3809523810E-01 1 1 1
    -8.1945032770E-17 -4.2294210462E-17  2.8571428571E-01 1 1 1
     3.3333333333E-01  3.3333333333E-01  3.3333333333E-01 1 1 1
     6.6666666667E-01  6.6666666667E-01  3.8095238095E-01 1 1 1
    -8.1945032770E-17 -4.2294210462E-17  4.2857142857E-01 1 1 1
     3.3333333333E-01  3.3333333333E-01  4.7619047619E-01 1 1 1
     6.6666666667E-01  6.6666666667E-01  5.2380952381E-01 1 1 1
    -8.1945032770E-17 -4.2294210462E-17  5.7142857143E-01 1 1 1
     3.3333333333E-01  3.3333333333E-01  6.1904761905E-01 1 1 1
     6.6666666667E-01  6.6666666667E-01  6.6666666667E-01 1 1 1
    -8.1945032770E-17 -4.2294210462E-17  7.1428571429E-01 1 1 1
     3.3333333333E-01  3.3333333333E-01  7.6190476190E-01 1 1 1
     6.6666666667E-01  6.6666666667E-01  8.0952380952E-01 1 1 1
    -8.1945032770E-17 -4.2294210462E-17  8.5714285714E-01 1 1 1
     3.3333333333E-01  3.3333333333E-01  9.0476190476E-01 1 1 1
     6.6666666667E-01  6.6666666667E-01  9.5238095238E-01 1 1 1
