%BLOCK LATTICE_CART
   2.805799707700000   0.000000000000000   0.000000000000000
   1.402899853850000   2.429893824799152   0.000000000000000
   0.000000000000003   0.000000000000002  46.407669438314521
%END BLOCK LATTICE_CART
%BLOCK POSITIONS_FRAC
    Al   0.000000000000000   0.000000000000000   0.000235722621043
    Al   0.333333333300000   0.333333333300000   0.049883703554221
    Al   0.666666666700000   0.666666666700000   0.099527279519558
    Al   0.000000000000000   0.000000000000000   0.149161309607078
    Al   0.333333333300000   0.333333333300000   0.199156738898000
    Al   0.833333333300000   0.833333333300000   0.250804891139935
    Al   0.166666666700000   0.166666666700000   0.300722579725450
    Al   0.500000000000000   0.500000000000000   0.350293268122293
    Al   0.833333333300000   0.833333333300000   0.399848201436432
    Al   0.166666666700000   0.166666666700000   0.449999567814302
    Al   0.833333333300000   0.833333333300000   0.500151023238045
    Al   0.500000000000000   0.500000000000000   0.549706116233519
    Al   0.166666666700000   0.166666666700000   0.599276912969600
    Al   0.833333333300000   0.833333333300000   0.649194726045893
    Al   0.333333333300000   0.333333333300000   0.700843095928542
    Al   1.000000000000000   1.000000000000000   0.750838768971102
    Al   0.666666666700000   0.666666666700000   0.800473095122797
    Al   0.333333333300000   0.333333333300000   0.850116881159264
    Al   0.000000000000000   0.000000000000000   0.899764899534549
    Al   0.666666666700000   0.666666666700000   0.950000307363488
%END BLOCK POSITIONS_FRAC
%BLOCK SPECIES_POT
    Al al_HC.lda.recpot                                                                       
%END BLOCK SPECIES_POT
%BLOCK ION_OPTIMIZATION
           0           0           1
           0           0           1
           0           0           1
           0           0           1
           0           0           1
           0           0           1
           0           0           1
           0           0           1
           0           0           1
           0           0           1
           0           0           1
           0           0           1
           0           0           1
           0           0           1
           0           0           1
           0           0           1
           0           0           1
           0           0           1
           0           0           1
           0           0           1
%END BLOCK ION_OPTIMIZATION
