%BLOCK LATTICE_CART
   2.663796241959785   0.000000002646425   0.000000008650968
   0.000000002646425   2.663796243039281  -0.000000003621619
   0.000000008650968  -0.000000003621619   2.663796243038981
%END BLOCK LATTICE_CART
%BLOCK POSITIONS_FRAC
    Al   0.000000000000000   0.000000000000000   0.000000000000000
%END BLOCK POSITIONS_FRAC
%BLOCK SPECIES_POT
    Al al.lda.recpot                                                                          
%END BLOCK SPECIES_POT
