ATOMIC_SPECIES
Al 26.981539 al.lda.lps

LATTICE_CONSTANT
7.50241114482312  // add lattice constant

LATTICE_VECTORS
0.707106781187    0.000000000000    0.000000000000    
0.353553390593    0.612372435696    0.000000000000    
0.000000000000    0.000000000000    11.547005383792515

ATOMIC_POSITIONS
Direct

Al
0.0
20
    1.1469562629E-30  1.1469562629E-30  9.3462892025E-05 1 1 1
    3.3333333330E-01  3.3333333330E-01  4.9770203825E-02 1 1 1
    6.6666666670E-01  6.6666666670E-01  9.9788556030E-02 1 1 1
    1.0826260815E-30  1.0826260815E-30  1.4964190776E-01 1 1 1
    3.3333333330E-01  3.3333333330E-01  1.9957746929E-01 1 1 1
    7.6666666670E-01  7.6666666670E-01  2.5050055663E-01 1 1 1
    1.0000000000E-01  1.0000000000E-01  3.0032459492E-01 1 1 1
    4.3333333330E-01  4.3333333330E-01  3.5031844441E-01 1 1 1
    7.6666666670E-01  7.6666666670E-01  3.9998064177E-01 1 1 1
    1.0000000000E-01  1.0000000000E-01  4.5000000000E-01 1 1 1
    7.6666666670E-01  7.6666666670E-01  5.0001935823E-01 1 1 1
    4.3333333330E-01  4.3333333330E-01  5.4968155559E-01 1 1 1
    1.0000000000E-01  1.0000000000E-01  5.9967540508E-01 1 1 1
    7.6666666670E-01  7.6666666670E-01  6.4949944337E-01 1 1 1
    3.3333333330E-01  3.3333333330E-01  7.0042253071E-01 1 1 1
    1.0826260815E-30  1.0826260815E-30  7.5035809224E-01 1 1 1
    6.6666666670E-01  6.6666666670E-01  8.0021144397E-01 1 1 1
    3.3333333330E-01  3.3333333330E-01  8.5022979617E-01 1 1 1
    1.1469562629E-30  1.1469562629E-30  8.9990653711E-01 1 1 1
    6.6666666670E-01  6.6666666670E-01  9.5000000000E-01 1 1 1
