Transformation
0.529176965773
32.125341805842  0.000000000000  0.000000000000
0.000000000000  34.015067794421  0.000000000000
0.000000000000  0.000000000000  203.504654071022
C  
1000  
Direct
0.633244000000  0.512278000000  0.006508000000  
0.644597000000  0.443669000000  0.012966000000  
0.644573000000  0.441170000000  0.026361000000  
0.634029000000  0.509946000000  0.033357000000  
0.634168000000  0.509524000000  0.046402000000  
0.644551000000  0.440011000000  0.053049000000  
0.644574000000  0.441223000000  0.066592000000  
0.633390000000  0.511851000000  0.073339000000  
0.633249000000  0.512262000000  0.086645000000  
0.644598000000  0.444231000000  0.093249000000  
0.644598000000  0.444677000000  0.106540000000  
0.632937000000  0.513163000000  0.113288000000  
0.633108000000  0.512672000000  0.126598000000  
0.644595000000  0.443277000000  0.133168000000  
0.644570000000  0.440980000000  0.145501000000  
0.634624000000  0.508117000000  0.152746000000  
0.637000000000  0.500165000000  0.165531000000  
0.644059000000  0.429480000000  0.169353000000  
0.640910000000  0.405456000000  0.189686000000  
0.639880000000  0.488491000000  0.194279000000  
0.637080000000  0.499873000000  0.206689000000  
0.644511000000  0.438417000000  0.214593000000  
0.644588000000  0.446536000000  0.227048000000  
0.629745000000  0.521728000000  0.232519000000  
0.625227000000  0.532259000000  0.245146000000  
0.643405000000  0.466685000000  0.253218000000  
0.642604000000  0.473168000000  0.265404000000  
0.610181000000  0.559506000000  0.271317000000  
0.631163000000  0.518064000000  0.292451000000  
0.644564000000  0.440642000000  0.294007000000  
0.644207000000  0.431706000000  0.306383000000  
0.637187000000  0.499484000000  0.311681000000  
0.635261000000  0.506093000000  0.322594000000  
0.644595000000  0.443168000000  0.329425000000  
0.644541000000  0.449330000000  0.339948000000  
0.625133000000  0.532464000000  0.343059000000  
0.629281000000  0.522886000000  0.365967000000  
0.644547000000  0.439834000000  0.371673000000  
0.644482000000  0.437501000000  0.383872000000  
0.639186000000  0.491582000000  0.390704000000  
0.635344000000  0.505826000000  0.411010000000  
0.643282000000  0.467794000000  0.402386000000  
0.642918000000  0.470818000000  0.423619000000  
0.630076000000  0.520889000000  0.434165000000  
0.637964000000  0.496566000000  0.448385000000  
0.643797000000  0.426217000000  0.453125000000  
0.644012000000  0.428844000000  0.466460000000  
0.638521000000  0.494359000000  0.470815000000  
0.634807000000  0.507544000000  0.485773000000  
0.644567000000  0.440824000000  0.493570000000  
0.644595000000  0.443209000000  0.508411000000  
0.633512000000  0.511491000000  0.514212000000  
0.627549000000  0.527042000000  0.528877000000  
0.641581000000  0.479734000000  0.540931000000  
0.642171000000  0.412775000000  0.541325000000  
0.625640000000  0.531359000000  0.551237000000  
0.624872000000  0.533026000000  0.566962000000  
0.640808000000  0.483962000000  0.579311000000  
0.643437000000  0.422505000000  0.579817000000  
0.620751000000  0.541389000000  0.590293000000  
0.618010000000  0.546490000000  0.607520000000  
0.639216000000  0.491453000000  0.619030000000  
0.643160000000  0.420038000000  0.618694000000  
0.622402000000  0.538147000000  0.632046000000  
0.634477000000  0.508576000000  0.647916000000  
0.644389000000  0.435109000000  0.652179000000  
0.644254000000  0.432480000000  0.667376000000  
0.637194000000  0.499459000000  0.672127000000  
0.631116000000  0.518186000000  0.687573000000  
0.643228000000  0.468271000000  0.699565000000  
0.641101000000  0.406471000000  0.699728000000  
0.631065000000  0.518323000000  0.710580000000  
0.634001000000  0.510031000000  0.725735000000  
0.644588000000  0.442345000000  0.732409000000  
0.644597000000  0.443750000000  0.747737000000  
0.628621000000  0.524500000000  0.755172000000  
0.622606000000  0.537736000000  0.770475000000  
0.640261000000  0.486692000000  0.780098000000  
0.642333000000  0.413841000000  0.777771000000  
0.628401000000  0.525028000000  0.794434000000  
0.636676000000  0.501318000000  0.807176000000  
0.644174000000  0.431164000000  0.812925000000  
0.644193000000  0.431479000000  0.826606000000  
0.635590000000  0.505021000000  0.833557000000  
0.635005000000  0.506915000000  0.846219000000  
0.644455000000  0.436736000000  0.853581000000  
0.644591000000  0.446209000000  0.866012000000  
0.631598000000  0.516896000000  0.871831000000  
0.633984000000  0.510083000000  0.884176000000  
0.640542000000  0.403574000000  0.896003000000  
0.643929000000  0.427784000000  0.908016000000  
0.635716000000  0.504603000000  0.913691000000  
0.635181000000  0.506353000000  0.927227000000  
0.644410000000  0.435598000000  0.933895000000  
0.644426000000  0.435990000000  0.946585000000  
0.636536000000  0.501810000000  0.953406000000  
0.636280000000  0.502699000000  0.966455000000  
0.644573000000  0.441208000000  0.973042000000  
0.644596000000  0.443397000000  0.986454000000  
0.633426000000  0.511745000000  0.992881000000  
0.550252000000  0.621217000000  0.006487000000  
0.600676000000  0.572986000000  0.013135000000  
0.600464000000  0.573264000000  0.026553000000  
0.548753000000  0.622255000000  0.033276000000  
0.548621000000  0.622346000000  0.046667000000  
0.600431000000  0.573307000000  0.053348000000  
0.600465000000  0.573263000000  0.066633000000  
0.548621000000  0.622346000000  0.073333000000  
0.548642000000  0.622331000000  0.086669000000  
0.600217000000  0.573587000000  0.093346000000  
0.600027000000  0.573833000000  0.106694000000  
0.548096000000  0.622705000000  0.113406000000  
0.547912000000  0.622831000000  0.127062000000  
0.599341000000  0.574718000000  0.133525000000  
0.601431000000  0.571991000000  0.146757000000  
0.551800000000  0.620126000000  0.154448000000  
0.564213000000  0.610653000000  0.168583000000  
0.613808000000  0.553732000000  0.173059000000  
0.614856000000  0.551985000000  0.185866000000  
0.567758000000  0.607693000000  0.190274000000  
0.556131000000  0.616970000000  0.203016000000  
0.603970000000  0.568555000000  0.211623000000  
0.596817000000  0.577899000000  0.224173000000  
0.540029000000  0.627968000000  0.228639000000  
0.521721000000  0.638277000000  0.239680000000  
0.573390000000  0.602731000000  0.250065000000  
0.560629000000  0.613526000000  0.261637000000  
0.604754000000  0.567465000000  0.283280000000  
0.556274000000  0.616864000000  0.291889000000  
0.576081000000  0.600240000000  0.302683000000  
0.618882000000  0.544902000000  0.303053000000  
0.538109000000  0.629152000000  0.310217000000  
0.542220000000  0.626585000000  0.322385000000  
0.607540000000  0.563474000000  0.329610000000  
0.611033000000  0.558185000000  0.353064000000  
0.552411000000  0.619689000000  0.356506000000  
0.552749000000  0.619447000000  0.369132000000  
0.603316000000  0.569452000000  0.374162000000  
0.611547000000  0.557378000000  0.386733000000  
0.576338000000  0.599998000000  0.394715000000  
0.562379000000  0.612138000000  0.417148000000  
0.592848000000  0.582671000000  0.408213000000  
0.585273000000  0.591082000000  0.430326000000  
0.541345000000  0.627142000000  0.437161000000  
0.537468000000  0.629542000000  0.449788000000  
0.580613000000  0.595856000000  0.460185000000  
0.620608000000  0.541664000000  0.459896000000  
0.542073000000  0.626679000000  0.470946000000  
0.551493000000  0.620343000000  0.484739000000  
0.604091000000  0.568387000000  0.491570000000  
0.601850000000  0.571433000000  0.505891000000  
0.553040000000  0.619238000000  0.511092000000  
0.541543000000  0.627016000000  0.523408000000  
0.588158000000  0.587978000000  0.532417000000  
0.585131000000  0.591231000000  0.545399000000  
0.536703000000  0.630003000000  0.552080000000  
0.543454000000  0.625791000000  0.564759000000  
0.590764000000  0.585071000000  0.570905000000  
0.582739000000  0.593712000000  0.582790000000  
0.520914000000  0.638684000000  0.584501000000  
0.508415000000  0.644502000000  0.605907000000  
0.571585000000  0.604357000000  0.613305000000  
0.575591000000  0.600700000000  0.628125000000  
0.519806000000  0.639235000000  0.635944000000  
0.515337000000  0.641389000000  0.651380000000  
0.564699000000  0.610255000000  0.662068000000  
0.614831000000  0.552026000000  0.660728000000  
0.528061000000  0.634948000000  0.676500000000  
0.557353000000  0.616052000000  0.688995000000  
0.601475000000  0.571932000000  0.692391000000  
0.602686000000  0.570309000000  0.706033000000  
0.559360000000  0.614516000000  0.710889000000  
0.549205000000  0.621944000000  0.724863000000  
0.599582000000  0.574409000000  0.732634000000  
0.593903000000  0.581428000000  0.746976000000  
0.528756000000  0.634568000000  0.751521000000  
0.495998000000  0.649448000000  0.764050000000  
0.578174000000  0.598246000000  0.775920000000  
0.560987000000  0.613245000000  0.787800000000  
0.584389000000  0.592009000000  0.795443000000  
0.565140000000  0.609891000000  0.808061000000  
0.606360000000  0.565186000000  0.814974000000  
0.605084000000  0.567001000000  0.826959000000  
0.550539000000  0.621016000000  0.833965000000  
0.550579000000  0.620988000000  0.846782000000  
0.600391000000  0.573360000000  0.853072000000  
0.600105000000  0.573732000000  0.865906000000  
0.548168000000  0.622656000000  0.873039000000  
0.549943000000  0.621432000000  0.886662000000  
0.602497000000  0.570564000000  0.892782000000  
0.604347000000  0.568032000000  0.906645000000  
0.550060000000  0.621351000000  0.913954000000  
0.549185000000  0.621958000000  0.928602000000  
0.601441000000  0.571977000000  0.934959000000  
0.608143000000  0.562583000000  0.948918000000  
0.508040000000  0.644664000000  0.961206000000  
0.572883000000  0.603191000000  0.960630000000  
0.607203000000  0.563965000000  0.971206000000  
0.600856000000  0.572750000000  0.985621000000  
0.549570000000  0.621691000000  0.992297000000  
0.413737000000  0.664335000000  0.006767000000  
0.484345000000  0.653386000000  0.013409000000  
0.484254000000  0.653414000000  0.026667000000  
0.411541000000  0.664343000000  0.033340000000  
0.411163000000  0.664342000000  0.046661000000  
0.483714000000  0.653580000000  0.053333000000  
0.483714000000  0.653580000000  0.066667000000  
0.411565000000  0.664343000000  0.073307000000  
0.411765000000  0.664343000000  0.086667000000  
0.483714000000  0.653580000000  0.093333000000  
0.483420000000  0.653671000000  0.106709000000  
0.411013000000  0.664342000000  0.113185000000  
0.407741000000  0.664310000000  0.126758000000  
0.481494000000  0.654250000000  0.133932000000  
0.481092000000  0.654369000000  0.147871000000  
0.405587000000  0.664266000000  0.154130000000  
0.394221000000  0.663718000000  0.167696000000  
0.450752000000  0.661238000000  0.178988000000  
0.523242000000  0.637500000000  0.178969000000  
0.401364000000  0.664124000000  0.189263000000  
0.414003000000  0.664333000000  0.202071000000  
0.487082000000  0.652520000000  0.208618000000  
0.482422000000  0.653973000000  0.221008000000  
0.409913000000  0.664336000000  0.227473000000  
0.369827000000  0.660747000000  0.248181000000  
0.424481000000  0.664015000000  0.239014000000  
0.473756000000  0.656406000000  0.265151000000  
0.427707000000  0.663827000000  0.274650000000  
0.422180000000  0.664123000000  0.284494000000  
0.478949000000  0.654990000000  0.292858000000  
0.472087000000  0.656835000000  0.304914000000  
0.418474000000  0.664252000000  0.312490000000  
0.434853000000  0.663259000000  0.336279000000  
0.465234000000  0.658466000000  0.325904000000  
0.472490000000  0.656732000000  0.349707000000  
0.412458000000  0.664342000000  0.357802000000  
0.430379000000  0.663639000000  0.371611000000  
0.502674000000  0.646889000000  0.375726000000  
0.509358000000  0.644094000000  0.388816000000  
0.439948000000  0.662726000000  0.393806000000  
0.422852000000  0.664094000000  0.407659000000  
0.488572000000  0.652034000000  0.417775000000  
0.475130000000  0.656043000000  0.429827000000  
0.407951000000  0.664314000000  0.435463000000  
0.417479000000  0.664277000000  0.449694000000  
0.481683000000  0.654194000000  0.454374000000  
0.482373000000  0.653988000000  0.466327000000  
0.420578000000  0.664185000000  0.471043000000  
0.412855000000  0.664341000000  0.485114000000  
0.488466000000  0.652069000000  0.491860000000  
0.492221000000  0.650797000000  0.504516000000  
0.433450000000  0.663387000000  0.512065000000  
0.432434000000  0.663475000000  0.534876000000  
0.466607000000  0.658156000000  0.524883000000  
0.465811000000  0.658337000000  0.547480000000  
0.407527000000  0.664307000000  0.555040000000  
0.412873000000  0.664341000000  0.567383000000  
0.491371000000  0.651091000000  0.572334000000  
0.490260000000  0.651470000000  0.593681000000  
0.409088000000  0.664329000000  0.596533000000  
0.398999000000  0.664012000000  0.618154000000  
0.429826000000  0.663680000000  0.608992000000  
0.438093000000  0.662933000000  0.630444000000  
0.384774000000  0.662861000000  0.637546000000  
0.387965000000  0.663191000000  0.648376000000  
0.445705000000  0.661994000000  0.655153000000  
0.415233000000  0.664319000000  0.667461000000  
0.452283000000  0.660988000000  0.677053000000  
0.413114000000  0.664339000000  0.689753000000  
0.453710000000  0.660745000000  0.700726000000  
0.516872000000  0.640662000000  0.700877000000  
0.399158000000  0.664020000000  0.710947000000  
0.409149000000  0.664329000000  0.724532000000  
0.480535000000  0.654532000000  0.730919000000  
0.475460000000  0.655955000000  0.743916000000  
0.404751000000  0.664243000000  0.750527000000  
0.416204000000  0.664303000000  0.762359000000  
0.521754000000  0.638260000000  0.772516000000  
0.498697000000  0.648441000000  0.785013000000  
0.421691000000  0.664143000000  0.792125000000  
0.415503000000  0.664315000000  0.806374000000  
0.486739000000  0.652631000000  0.814082000000  
0.483762000000  0.653566000000  0.827501000000  
0.409487000000  0.664333000000  0.836459000000  
0.420283000000  0.664196000000  0.848446000000  
0.486444000000  0.652725000000  0.853855000000  
0.487446000000  0.652402000000  0.867070000000  
0.417154000000  0.664284000000  0.873718000000  
0.417064000000  0.664286000000  0.887050000000  
0.486338000000  0.652759000000  0.893645000000  
0.485467000000  0.653035000000  0.907152000000  
0.412238000000  0.664343000000  0.913555000000  
0.407341000000  0.664303000000  0.927023000000  
0.477669000000  0.655350000000  0.935127000000  
0.458139000000  0.659937000000  0.950155000000  
0.380893000000  0.662401000000  0.952795000000  
0.345381000000  0.655216000000  0.964753000000  
0.463601000000  0.658824000000  0.974158000000  
0.486426000000  0.652731000000  0.986899000000  
0.416271000000  0.664302000000  0.994327000000  
0.269976000000  0.618867000000  0.005308000000  
0.339752000000  0.653561000000  0.013072000000  
0.339049000000  0.653344000000  0.026441000000  
0.275114000000  0.622487000000  0.032707000000  
0.273043000000  0.621053000000  0.046380000000  
0.337919000000  0.652990000000  0.053352000000  
0.337696000000  0.652920000000  0.066477000000  
0.273063000000  0.621067000000  0.073278000000  
0.275272000000  0.622595000000  0.086456000000  
0.341216000000  0.654006000000  0.093130000000  
0.340017000000  0.653642000000  0.106161000000  
0.277142000000  0.623860000000  0.111773000000  
0.267249000000  0.616859000000  0.123377000000  
0.331214000000  0.650764000000  0.132707000000  
0.327225000000  0.649336000000  0.145848000000  
0.263249000000  0.613799000000  0.152483000000  
0.265953000000  0.615883000000  0.165927000000  
0.325253000000  0.648600000000  0.172450000000  
0.327491000000  0.649434000000  0.184753000000  
0.271967000000  0.620294000000  0.191813000000  
0.278831000000  0.624979000000  0.203609000000  
0.344159000000  0.654869000000  0.209111000000  
0.339442000000  0.653466000000  0.220547000000  
0.262291000000  0.613046000000  0.223555000000  
0.273220000000  0.621177000000  0.245525000000  
0.393618000000  0.663674000000  0.258231000000  
0.363030000000  0.659472000000  0.268129000000  
0.302755000000  0.638754000000  0.273725000000  
0.296845000000  0.635692000000  0.296147000000  
0.330574000000  0.650540000000  0.286257000000  
0.330601000000  0.650550000000  0.309156000000  
0.279624000000  0.625498000000  0.316840000000  
0.280901000000  0.626324000000  0.329496000000  
0.349166000000  0.656246000000  0.338556000000  
0.339271000000  0.653413000000  0.351315000000  
0.275768000000  0.622933000000  0.356531000000  
0.264289000000  0.614608000000  0.370179000000  
0.309226000000  0.641871000000  0.381729000000  
0.382065000000  0.662547000000  0.381953000000  
0.265062000000  0.615204000000  0.392139000000  
0.273623000000  0.621458000000  0.406502000000  
0.341837000000  0.654191000000  0.413441000000  
0.338143000000  0.653061000000  0.428380000000  
0.275064000000  0.622453000000  0.434481000000  
0.265872000000  0.615821000000  0.449588000000  
0.307667000000  0.641141000000  0.460140000000  
0.366579000000  0.660162000000  0.460166000000  
0.263204000000  0.613765000000  0.471333000000  
0.274140000000  0.621817000000  0.486080000000  
0.342135000000  0.654280000000  0.492148000000  
0.349685000000  0.656383000000  0.507019000000  
0.286470000000  0.629789000000  0.514864000000  
0.293496000000  0.633862000000  0.529774000000  
0.356810000000  0.658130000000  0.536853000000  
0.344879000000  0.655074000000  0.548481000000  
0.283757000000  0.628128000000  0.551675000000  
0.270200000000  0.619029000000  0.564743000000  
0.339449000000  0.653468000000  0.573921000000  
0.330665000000  0.650572000000  0.587828000000  
0.250600000000  0.603149000000  0.592036000000  
0.223694000000  0.574081000000  0.604344000000  
0.313061000000  0.643606000000  0.621787000000  
0.314653000000  0.644303000000  0.632209000000  
0.262622000000  0.613307000000  0.639481000000  
0.269544000000  0.618553000000  0.649985000000  
0.325944000000  0.648860000000  0.654758000000  
0.336047000000  0.652390000000  0.665653000000  
0.275632000000  0.622841000000  0.673983000000  
0.276034000000  0.623114000000  0.686204000000  
0.334977000000  0.652040000000  0.693156000000  
0.331005000000  0.650692000000  0.706176000000  
0.271203000000  0.619750000000  0.712845000000  
0.273008000000  0.621028000000  0.726041000000  
0.336573000000  0.652561000000  0.732098000000  
0.338868000000  0.653288000000  0.745130000000  
0.274207000000  0.621863000000  0.752420000000  
0.276962000000  0.623739000000  0.765897000000  
0.344787000000  0.655048000000  0.771598000000  
0.348103000000  0.655964000000  0.785249000000  
0.276813000000  0.623640000000  0.792372000000  
0.273947000000  0.621683000000  0.804738000000  
0.326207000000  0.648959000000  0.812063000000  
0.294031000000  0.634159000000  0.825292000000  
0.325175000000  0.648571000000  0.834756000000  
0.294838000000  0.634603000000  0.847906000000  
0.351066000000  0.656739000000  0.855072000000  
0.349097000000  0.656228000000  0.867386000000  
0.287830000000  0.630603000000  0.873654000000  
0.285872000000  0.629427000000  0.886404000000  
0.345309000000  0.655196000000  0.893281000000  
0.341883000000  0.654205000000  0.906326000000  
0.275132000000  0.622500000000  0.912293000000  
0.272213000000  0.620469000000  0.925384000000  
0.334276000000  0.651808000000  0.932582000000  
0.327739000000  0.649524000000  0.944850000000  
0.267873000000  0.617323000000  0.950621000000  
0.274645000000  0.622165000000  0.962684000000  
0.381043000000  0.662421000000  0.974386000000  
0.352318000000  0.657055000000  0.986918000000  
0.274695000000  0.622199000000  0.991835000000  
0.184709000000  0.493130000000  0.006847000000  
0.220142000000  0.569355000000  0.012158000000  
0.222905000000  0.573054000000  0.025767000000  
0.191359000000  0.515327000000  0.031802000000  
0.188090000000  0.505515000000  0.043994000000  
0.217811000000  0.566104000000  0.052925000000  
0.217896000000  0.566224000000  0.066673000000  
0.189504000000  0.509957000000  0.075221000000  
0.193857000000  0.521912000000  0.087248000000  
0.227654000000  0.579057000000  0.092813000000  
0.228638000000  0.580248000000  0.105295000000  
0.196273000000  0.527721000000  0.112161000000  
0.193300000000  0.520498000000  0.133858000000  
0.208068000000  0.550959000000  0.124699000000  
0.207983000000  0.550813000000  0.146910000000  
0.186514000000  0.500108000000  0.154321000000  
0.188038000000  0.505344000000  0.166860000000  
0.218361000000  0.566883000000  0.172869000000  
0.220866000000  0.570340000000  0.186187000000  
0.190387000000  0.512572000000  0.193069000000  
0.191889000000  0.516780000000  0.206685000000  
0.235499000000  0.588117000000  0.211715000000  
0.240427000000  0.593341000000  0.233350000000  
0.192665000000  0.518851000000  0.236095000000  
0.190618000000  0.513238000000  0.248533000000  
0.228953000000  0.580627000000  0.254859000000  
0.235031000000  0.587605000000  0.267997000000  
0.196959000000  0.529288000000  0.275387000000  
0.196889000000  0.529130000000  0.288683000000  
0.234590000000  0.587117000000  0.297770000000  
0.227076000000  0.578348000000  0.309970000000  
0.193748000000  0.521636000000  0.314952000000  
0.192120000000  0.517405000000  0.327516000000  
0.227374000000  0.578714000000  0.335185000000  
0.224654000000  0.575315000000  0.348216000000  
0.191517000000  0.515765000000  0.353896000000  
0.190687000000  0.513435000000  0.366997000000  
0.219084000000  0.567895000000  0.373989000000  
0.217676000000  0.565912000000  0.387341000000  
0.189105000000  0.508738000000  0.393521000000  
0.187826000000  0.504645000000  0.407686000000  
0.220219000000  0.569461000000  0.414399000000  
0.223458000000  0.573775000000  0.427923000000  
0.194507000000  0.523523000000  0.436524000000  
0.197601000000  0.530724000000  0.448503000000  
0.220835000000  0.570298000000  0.453883000000  
0.218556000000  0.567157000000  0.466861000000  
0.178931000000  0.444647000000  0.465416000000  
0.189329000000  0.509424000000  0.486848000000  
0.224238000000  0.574783000000  0.493588000000  
0.226284000000  0.577368000000  0.507763000000  
0.192328000000  0.517962000000  0.513610000000  
0.188998000000  0.508408000000  0.525926000000  
0.204483000000  0.544600000000  0.536763000000  
0.246682000000  0.599516000000  0.539171000000  
0.182773000000  0.484227000000  0.542489000000  
0.186252000000  0.499155000000  0.564215000000  
0.220813000000  0.570269000000  0.569775000000  
0.213884000000  0.560326000000  0.581863000000  
0.183148000000  0.486108000000  0.583499000000  
0.185353000000  0.495735000000  0.603324000000  
0.240627000000  0.593545000000  0.615955000000  
0.200568000000  0.537017000000  0.626777000000  
0.211177000000  0.556098000000  0.636707000000  
0.194403000000  0.523267000000  0.648329000000  
0.223243000000  0.573496000000  0.656133000000  
0.222030000000  0.571900000000  0.667575000000  
0.190020000000  0.511500000000  0.673904000000  
0.190106000000  0.511753000000  0.686478000000  
0.222990000000  0.573166000000  0.692967000000  
0.222601000000  0.572655000000  0.706502000000  
0.190085000000  0.511692000000  0.713204000000  
0.190157000000  0.511901000000  0.726613000000  
0.222570000000  0.572614000000  0.733057000000  
0.223301000000  0.573571000000  0.746354000000  
0.190373000000  0.512532000000  0.753277000000  
0.190594000000  0.513170000000  0.766657000000  
0.224786000000  0.575483000000  0.773160000000  
0.225456000000  0.576331000000  0.785866000000  
0.190154000000  0.511892000000  0.792948000000  
0.190619000000  0.513241000000  0.806012000000  
0.222019000000  0.571885000000  0.811611000000  
0.228640000000  0.580251000000  0.823672000000  
0.193011000000  0.519753000000  0.833098000000  
0.193937000000  0.522110000000  0.847509000000  
0.230612000000  0.582590000000  0.854208000000  
0.235411000000  0.588022000000  0.868810000000  
0.181919000000  0.479559000000  0.879487000000  
0.204223000000  0.544119000000  0.879551000000  
0.232601000000  0.584884000000  0.890634000000  
0.223695000000  0.574082000000  0.904466000000  
0.189907000000  0.511164000000  0.910712000000  
0.189861000000  0.511029000000  0.925061000000  
0.221169000000  0.570749000000  0.931724000000  
0.220881000000  0.570361000000  0.944828000000  
0.189777000000  0.510779000000  0.951850000000  
0.191823000000  0.516603000000  0.964255000000  
0.227714000000  0.579129000000  0.970133000000  
0.223550000000  0.573895000000  0.982578000000  
0.184941000000  0.494084000000  0.984530000000  
0.193622000000  0.367571000000  0.009261000000  
0.178973000000  0.440284000000  0.014615000000  
0.178988000000  0.449317000000  0.025945000000  
0.184975000000  0.394665000000  0.033709000000  
0.189157000000  0.379992000000  0.054358000000  
0.180223000000  0.421313000000  0.045331000000  
0.188398000000  0.382377000000  0.066035000000  
0.179781000000  0.425673000000  0.074389000000  
0.182373000000  0.406773000000  0.085797000000  
0.179862000000  0.464090000000  0.092803000000  
0.179123000000  0.453376000000  0.104086000000  
0.192658000000  0.370057000000  0.104965000000  
0.200483000000  0.352045000000  0.126957000000  
0.179090000000  0.436322000000  0.135849000000  
0.179411000000  0.430333000000  0.148039000000  
0.192453000000  0.370596000000  0.153864000000  
0.191840000000  0.372242000000  0.166558000000  
0.178939000000  0.442621000000  0.173304000000  
0.178935000000  0.443082000000  0.186198000000  
0.188965000000  0.380586000000  0.191730000000  
0.191869000000  0.372161000000  0.203564000000  
0.178939000000  0.446286000000  0.213376000000  
0.178937000000  0.442790000000  0.226698000000  
0.191697000000  0.372630000000  0.233444000000  
0.190426000000  0.376204000000  0.247612000000  
0.178985000000  0.449174000000  0.254586000000  
0.179067000000  0.451973000000  0.268180000000  
0.187777000000  0.384407000000  0.275470000000  
0.184713000000  0.395745000000  0.289566000000  
0.179981000000  0.465302000000  0.294707000000  
0.179613000000  0.461265000000  0.307502000000  
0.185495000000  0.392598000000  0.311512000000  
0.189195000000  0.379873000000  0.325615000000  
0.178986000000  0.449229000000  0.333343000000  
0.178958000000  0.447819000000  0.346661000000  
0.187849000000  0.384168000000  0.353222000000  
0.185778000000  0.391510000000  0.366972000000  
0.179176000000  0.454524000000  0.372561000000  
0.178981000000  0.449000000000  0.386089000000  
0.188357000000  0.382510000000  0.389502000000  
0.196376000000  0.360931000000  0.404741000000  
0.180124000000  0.422207000000  0.414142000000  
0.183201000000  0.402525000000  0.430452000000  
0.213971000000  0.328430000000  0.434497000000  
0.179102000000  0.452877000000  0.437729000000  
0.180447000000  0.469499000000  0.451381000000  
0.189329000000  0.509426000000  0.473112000000  
0.189825000000  0.377968000000  0.471245000000  
0.189536000000  0.378833000000  0.486568000000  
0.178962000000  0.448015000000  0.493133000000  
0.179003000000  0.449906000000  0.506401000000  
0.187008000000  0.387026000000  0.513248000000  
0.186328000000  0.389458000000  0.526453000000  
0.179044000000  0.451297000000  0.531385000000  
0.179626000000  0.461420000000  0.552404000000  
0.187456000000  0.385487000000  0.555126000000  
0.188548000000  0.381898000000  0.567624000000  
0.179179000000  0.454601000000  0.572332000000  
0.179337000000  0.457431000000  0.592915000000  
0.188967000000  0.380580000000  0.595522000000  
0.191341000000  0.373610000000  0.606900000000  
0.178931000000  0.444298000000  0.612445000000  
0.179204000000  0.455092000000  0.623161000000  
0.190744000000  0.375292000000  0.631995000000  
0.193027000000  0.369094000000  0.644640000000  
0.178955000000  0.441251000000  0.653169000000  
0.179030000000  0.438030000000  0.666738000000  
0.191508000000  0.373149000000  0.674190000000  
0.189563000000  0.378752000000  0.687350000000  
0.178931000000  0.444902000000  0.693310000000  
0.178932000000  0.445152000000  0.706694000000  
0.190520000000  0.375932000000  0.713550000000  
0.190459000000  0.376108000000  0.726722000000  
0.178931000000  0.444444000000  0.733333000000  
0.178931000000  0.444462000000  0.746747000000  
0.190342000000  0.376447000000  0.753444000000  
0.190420000000  0.376222000000  0.766873000000  
0.178931000000  0.443969000000  0.773470000000  
0.178931000000  0.444470000000  0.786604000000  
0.190670000000  0.375501000000  0.793692000000  
0.190010000000  0.377420000000  0.807054000000  
0.178933000000  0.445474000000  0.813339000000  
0.178969000000  0.448438000000  0.827006000000  
0.189162000000  0.379976000000  0.834008000000  
0.189770000000  0.378132000000  0.847110000000  
0.178932000000  0.445192000000  0.854522000000  
0.179377000000  0.430840000000  0.868672000000  
0.196134000000  0.361489000000  0.873288000000  
0.196320000000  0.361060000000  0.885985000000  
0.179487000000  0.429261000000  0.890501000000  
0.178939000000  0.442579000000  0.904424000000  
0.190525000000  0.375919000000  0.912079000000  
0.189791000000  0.378069000000  0.925530000000  
0.178933000000  0.443579000000  0.931910000000  
0.178932000000  0.443893000000  0.945855000000  
0.191318000000  0.373676000000  0.952617000000  
0.190389000000  0.376311000000  0.966547000000  
0.179592000000  0.460999000000  0.971988000000  
0.179502000000  0.459838000000  0.994727000000  
0.192056000000  0.371658000000  0.997253000000  
0.326791000000  0.239713000000  0.006590000000  
0.226598000000  0.311131000000  0.017833000000  
0.217602000000  0.323083000000  0.029431000000  
0.265590000000  0.273282000000  0.036744000000  
0.268854000000  0.270841000000  0.048424000000  
0.226242000000  0.311574000000  0.055255000000  
0.224772000000  0.313423000000  0.066059000000  
0.264091000000  0.274433000000  0.073867000000  