ATOMIC_SPECIES
C 12.011 C_ONCV_PBE-1.0.upf

NUMERICAL_ORBITAL
C_gga_8au_60Ry_2s2p1d.orb

LATTICE_CONSTANT
1

LATTICE_VECTORS
32.1253418058417  0.00000000000000  0.000000000000000
0.00000000000000  34.0150677944206  0.000000000000000
0.00000000000000  0.00000000000000  203.5046540710219

ATOMIC_POSITIONS
Direct

C
0
1000
0.6332440000  0.5122780000  0.0065080000  1  1  1
0.6445970000  0.4436690000  0.0129660000  1  1  1
0.6445730000  0.4411700000  0.0263610000  1  1  1
0.6340290000  0.5099460000  0.0333570000  1  1  1
0.6341680000  0.5095240000  0.0464020000  1  1  1
0.6445510000  0.4400110000  0.0530490000  1  1  1
0.6445740000  0.4412230000  0.0665920000  1  1  1
0.6333900000  0.5118510000  0.0733390000  1  1  1
0.6332490000  0.5122620000  0.0866450000  1  1  1
0.6445980000  0.4442310000  0.0932490000  1  1  1
0.6445980000  0.4446770000  0.1065400000  1  1  1
0.6329370000  0.5131630000  0.1132880000  1  1  1
0.6331080000  0.5126720000  0.1265980000  1  1  1
0.6445950000  0.4432770000  0.1331680000  1  1  1
0.6445700000  0.4409800000  0.1455010000  1  1  1
0.6346240000  0.5081170000  0.1527460000  1  1  1
0.6370000000  0.5001650000  0.1655310000  1  1  1
0.6440590000  0.4294800000  0.1693530000  1  1  1
0.6409100000  0.4054560000  0.1896860000  1  1  1
0.6398800000  0.4884910000  0.1942790000  1  1  1
0.6370800000  0.4998730000  0.2066890000  1  1  1
0.6445110000  0.4384170000  0.2145930000  1  1  1
0.6445880000  0.4465360000  0.2270480000  1  1  1
0.6297450000  0.5217280000  0.2325190000  1  1  1
0.6252270000  0.5322590000  0.2451460000  1  1  1
0.6434050000  0.4666850000  0.2532180000  1  1  1
0.6426040000  0.4731680000  0.2654040000  1  1  1
0.6101810000  0.5595060000  0.2713170000  1  1  1
0.6311630000  0.5180640000  0.2924510000  1  1  1
0.6445640000  0.4406420000  0.2940070000  1  1  1
0.6442070000  0.4317060000  0.3063830000  1  1  1
0.6371870000  0.4994840000  0.3116810000  1  1  1
0.6352610000  0.5060930000  0.3225940000  1  1  1
0.6445950000  0.4431680000  0.3294250000  1  1  1
0.6445410000  0.4493300000  0.3399480000  1  1  1
0.6251330000  0.5324640000  0.3430590000  1  1  1
0.6292810000  0.5228860000  0.3659670000  1  1  1
0.6445470000  0.4398340000  0.3716730000  1  1  1
0.6444820000  0.4375010000  0.3838720000  1  1  1
0.6391860000  0.4915820000  0.3907040000  1  1  1
0.6353440000  0.5058260000  0.4110100000  1  1  1
0.6432820000  0.4677940000  0.4023860000  1  1  1
0.6429180000  0.4708180000  0.4236190000  1  1  1
0.6300760000  0.5208890000  0.4341650000  1  1  1
0.6379640000  0.4965660000  0.4483850000  1  1  1
0.6437970000  0.4262170000  0.4531250000  1  1  1
0.6440120000  0.4288440000  0.4664600000  1  1  1
0.6385210000  0.4943590000  0.4708150000  1  1  1
0.6348070000  0.5075440000  0.4857730000  1  1  1
0.6445670000  0.4408240000  0.4935700000  1  1  1
0.6445950000  0.4432090000  0.5084110000  1  1  1
0.6335120000  0.5114910000  0.5142120000  1  1  1
0.6275490000  0.5270420000  0.5288770000  1  1  1
0.6415810000  0.4797340000  0.5409310000  1  1  1
0.6421710000  0.4127750000  0.5413250000  1  1  1
0.6256400000  0.5313590000  0.5512370000  1  1  1
0.6248720000  0.5330260000  0.5669620000  1  1  1
0.6408080000  0.4839620000  0.5793110000  1  1  1
0.6434370000  0.4225050000  0.5798170000  1  1  1
0.6207510000  0.5413890000  0.5902930000  1  1  1
0.6180100000  0.5464900000  0.6075200000  1  1  1
0.6392160000  0.4914530000  0.6190300000  1  1  1
0.6431600000  0.4200380000  0.6186940000  1  1  1
0.6224020000  0.5381470000  0.6320460000  1  1  1
0.6344770000  0.5085760000  0.6479160000  1  1  1
0.6443890000  0.4351090000  0.6521790000  1  1  1
0.6442540000  0.4324800000  0.6673760000  1  1  1
0.6371940000  0.4994590000  0.6721270000  1  1  1
0.6311160000  0.5181860000  0.6875730000  1  1  1
0.6432280000  0.4682710000  0.6995650000  1  1  1
0.6411010000  0.4064710000  0.6997280000  1  1  1
0.6310650000  0.5183230000  0.7105800000  1  1  1
0.6340010000  0.5100310000  0.7257350000  1  1  1
0.6445880000  0.4423450000  0.7324090000  1  1  1
0.6445970000  0.4437500000  0.7477370000  1  1  1
0.6286210000  0.5245000000  0.7551720000  1  1  1
0.6226060000  0.5377360000  0.7704750000  1  1  1
0.6402610000  0.4866920000  0.7800980000  1  1  1
0.6423330000  0.4138410000  0.7777710000  1  1  1
0.6284010000  0.5250280000  0.7944340000  1  1  1
0.6366760000  0.5013180000  0.8071760000  1  1  1
0.6441740000  0.4311640000  0.8129250000  1  1  1
0.6441930000  0.4314790000  0.8266060000  1  1  1
0.6355900000  0.5050210000  0.8335570000  1  1  1
0.6350050000  0.5069150000  0.8462190000  1  1  1
0.6444550000  0.4367360000  0.8535810000  1  1  1
0.6445910000  0.4462090000  0.8660120000  1  1  1
0.6315980000  0.5168960000  0.8718310000  1  1  1
0.6339840000  0.5100830000  0.8841760000  1  1  1
0.6405420000  0.4035740000  0.8960030000  1  1  1
0.6439290000  0.4277840000  0.9080160000  1  1  1
0.6357160000  0.5046030000  0.9136910000  1  1  1
0.6351810000  0.5063530000  0.9272270000  1  1  1
0.6444100000  0.4355980000  0.9338950000  1  1  1
0.6444260000  0.4359900000  0.9465850000  1  1  1
0.6365360000  0.5018100000  0.9534060000  1  1  1
0.6362800000  0.5026990000  0.9664550000  1  1  1
0.6445730000  0.4412080000  0.9730420000  1  1  1
0.6445960000  0.4433970000  0.9864540000  1  1  1
0.6334260000  0.5117450000  0.9928810000  1  1  1
0.5502520000  0.6212170000  0.0064870000  1  1  1
0.6006760000  0.5729860000  0.0131350000  1  1  1
0.6004640000  0.5732640000  0.0265530000  1  1  1
0.5487530000  0.6222550000  0.0332760000  1  1  1
0.5486210000  0.6223460000  0.0466670000  1  1  1
0.6004310000  0.5733070000  0.0533480000  1  1  1
0.6004650000  0.5732630000  0.0666330000  1  1  1
0.5486210000  0.6223460000  0.0733330000  1  1  1
0.5486420000  0.6223310000  0.0866690000  1  1  1
0.6002170000  0.5735870000  0.0933460000  1  1  1
0.6000270000  0.5738330000  0.1066940000  1  1  1
0.5480960000  0.6227050000  0.1134060000  1  1  1
0.5479120000  0.6228310000  0.1270620000  1  1  1
0.5993410000  0.5747180000  0.1335250000  1  1  1
0.6014310000  0.5719910000  0.1467570000  1  1  1
0.5518000000  0.6201260000  0.1544480000  1  1  1
0.5642130000  0.6106530000  0.1685830000  1  1  1
0.6138080000  0.5537320000  0.1730590000  1  1  1
0.6148560000  0.5519850000  0.1858660000  1  1  1
0.5677580000  0.6076930000  0.1902740000  1  1  1
0.5561310000  0.6169700000  0.2030160000  1  1  1
0.6039700000  0.5685550000  0.2116230000  1  1  1
0.5968170000  0.5778990000  0.2241730000  1  1  1
0.5400290000  0.6279680000  0.2286390000  1  1  1
0.5217210000  0.6382770000  0.2396800000  1  1  1
0.5733900000  0.6027310000  0.2500650000  1  1  1
0.5606290000  0.6135260000  0.2616370000  1  1  1
0.6047540000  0.5674650000  0.2832800000  1  1  1
0.5562740000  0.6168640000  0.2918890000  1  1  1
0.5760810000  0.6002400000  0.3026830000  1  1  1
0.6188820000  0.5449020000  0.3030530000  1  1  1
0.5381090000  0.6291520000  0.3102170000  1  1  1
0.5422200000  0.6265850000  0.3223850000  1  1  1
0.6075400000  0.5634740000  0.3296100000  1  1  1
0.6110330000  0.5581850000  0.3530640000  1  1  1
0.5524110000  0.6196890000  0.3565060000  1  1  1
0.5527490000  0.6194470000  0.3691320000  1  1  1
0.6033160000  0.5694520000  0.3741620000  1  1  1
0.6115470000  0.5573780000  0.3867330000  1  1  1
0.5763380000  0.5999980000  0.3947150000  1  1  1
0.5623790000  0.6121380000  0.4171480000  1  1  1
0.5928480000  0.5826710000  0.4082130000  1  1  1
0.5852730000  0.5910820000  0.4303260000  1  1  1
0.5413450000  0.6271420000  0.4371610000  1  1  1
0.5374680000  0.6295420000  0.4497880000  1  1  1
0.5806130000  0.5958560000  0.4601850000  1  1  1
0.6206080000  0.5416640000  0.4598960000  1  1  1
0.5420730000  0.6266790000  0.4709460000  1  1  1
0.5514930000  0.6203430000  0.4847390000  1  1  1
0.6040910000  0.5683870000  0.4915700000  1  1  1
0.6018500000  0.5714330000  0.5058910000  1  1  1
0.5530400000  0.6192380000  0.5110920000  1  1  1
0.5415430000  0.6270160000  0.5234080000  1  1  1
0.5881580000  0.5879780000  0.5324170000  1  1  1
0.5851310000  0.5912310000  0.5453990000  1  1  1
0.5367030000  0.6300030000  0.5520800000  1  1  1
0.5434540000  0.6257910000  0.5647590000  1  1  1
0.5907640000  0.5850710000  0.5709050000  1  1  1
0.5827390000  0.5937120000  0.5827900000  1  1  1
0.5209140000  0.6386840000  0.5845010000  1  1  1
0.5084150000  0.6445020000  0.6059070000  1  1  1
0.5715850000  0.6043570000  0.6133050000  1  1  1
0.5755910000  0.6007000000  0.6281250000  1  1  1
0.5198060000  0.6392350000  0.6359440000  1  1  1
0.5153370000  0.6413890000  0.6513800000  1  1  1
0.5646990000  0.6102550000  0.6620680000  1  1  1
0.6148310000  0.5520260000  0.6607280000  1  1  1
0.5280610000  0.6349480000  0.6765000000  1  1  1
0.5573530000  0.6160520000  0.6889950000  1  1  1
0.6014750000  0.5719320000  0.6923910000  1  1  1
0.6026860000  0.5703090000  0.7060330000  1  1  1
0.5593600000  0.6145160000  0.7108890000  1  1  1
0.5492050000  0.6219440000  0.7248630000  1  1  1
0.5995820000  0.5744090000  0.7326340000  1  1  1
0.5939030000  0.5814280000  0.7469760000  1  1  1
0.5287560000  0.6345680000  0.7515210000  1  1  1
0.4959980000  0.6494480000  0.7640500000  1  1  1
0.5781740000  0.5982460000  0.7759200000  1  1  1
0.5609870000  0.6132450000  0.7878000000  1  1  1
0.5843890000  0.5920090000  0.7954430000  1  1  1
0.5651400000  0.6098910000  0.8080610000  1  1  1
0.6063600000  0.5651860000  0.8149740000  1  1  1
0.6050840000  0.5670010000  0.8269590000  1  1  1
0.5505390000  0.6210160000  0.8339650000  1  1  1
0.5505790000  0.6209880000  0.8467820000  1  1  1
0.6003910000  0.5733600000  0.8530720000  1  1  1
0.6001050000  0.5737320000  0.8659060000  1  1  1
0.5481680000  0.6226560000  0.8730390000  1  1  1
0.5499430000  0.6214320000  0.8866620000  1  1  1
0.6024970000  0.5705640000  0.8927820000  1  1  1
0.6043470000  0.5680320000  0.9066450000  1  1  1
0.5500600000  0.6213510000  0.9139540000  1  1  1
0.5491850000  0.6219580000  0.9286020000  1  1  1
0.6014410000  0.5719770000  0.9349590000  1  1  1
0.6081430000  0.5625830000  0.9489180000  1  1  1
0.5080400000  0.6446640000  0.9612060000  1  1  1
0.5728830000  0.6031910000  0.9606300000  1  1  1
0.6072030000  0.5639650000  0.9712060000  1  1  1
0.6008560000  0.5727500000  0.9856210000  1  1  1
0.5495700000  0.6216910000  0.9922970000  1  1  1
0.4137370000  0.6643350000  0.0067670000  1  1  1
0.4843450000  0.6533860000  0.0134090000  1  1  1
0.4842540000  0.6534140000  0.0266670000  1  1  1
0.4115410000  0.6643430000  0.0333400000  1  1  1
0.4111630000  0.6643420000  0.0466610000  1  1  1
0.4837140000  0.6535800000  0.0533330000  1  1  1
0.4837140000  0.6535800000  0.0666670000  1  1  1
0.4115650000  0.6643430000  0.0733070000  1  1  1
0.4117650000  0.6643430000  0.0866670000  1  1  1
0.4837140000  0.6535800000  0.0933330000  1  1  1
0.4834200000  0.6536710000  0.1067090000  1  1  1
0.4110130000  0.6643420000  0.1131850000  1  1  1
0.4077410000  0.6643100000  0.1267580000  1  1  1
0.4814940000  0.6542500000  0.1339320000  1  1  1
0.4810920000  0.6543690000  0.1478710000  1  1  1
0.4055870000  0.6642660000  0.1541300000  1  1  1
0.3942210000  0.6637180000  0.1676960000  1  1  1
0.4507520000  0.6612380000  0.1789880000  1  1  1
0.5232420000  0.6375000000  0.1789690000  1  1  1
0.4013640000  0.6641240000  0.1892630000  1  1  1
0.4140030000  0.6643330000  0.2020710000  1  1  1
0.4870820000  0.6525200000  0.2086180000  1  1  1
0.4824220000  0.6539730000  0.2210080000  1  1  1
0.4099130000  0.6643360000  0.2274730000  1  1  1
0.3698270000  0.6607470000  0.2481810000  1  1  1
0.4244810000  0.6640150000  0.2390140000  1  1  1
0.4737560000  0.6564060000  0.2651510000  1  1  1
0.4277070000  0.6638270000  0.2746500000  1  1  1
0.4221800000  0.6641230000  0.2844940000  1  1  1
0.4789490000  0.6549900000  0.2928580000  1  1  1
0.4720870000  0.6568350000  0.3049140000  1  1  1
0.4184740000  0.6642520000  0.3124900000  1  1  1
0.4348530000  0.6632590000  0.3362790000  1  1  1
0.4652340000  0.6584660000  0.3259040000  1  1  1
0.4724900000  0.6567320000  0.3497070000  1  1  1
0.4124580000  0.6643420000  0.3578020000  1  1  1
0.4303790000  0.6636390000  0.3716110000  1  1  1
0.5026740000  0.6468890000  0.3757260000  1  1  1
0.5093580000  0.6440940000  0.3888160000  1  1  1
0.4399480000  0.6627260000  0.3938060000  1  1  1
0.4228520000  0.6640940000  0.4076590000  1  1  1
0.4885720000  0.6520340000  0.4177750000  1  1  1
0.4751300000  0.6560430000  0.4298270000  1  1  1
0.4079510000  0.6643140000  0.4354630000  1  1  1
0.4174790000  0.6642770000  0.4496940000  1  1  1
0.4816830000  0.6541940000  0.4543740000  1  1  1
0.4823730000  0.6539880000  0.4663270000  1  1  1
0.4205780000  0.6641850000  0.4710430000  1  1  1
0.4128550000  0.6643410000  0.4851140000  1  1  1
0.4884660000  0.6520690000  0.4918600000  1  1  1
0.4922210000  0.6507970000  0.5045160000  1  1  1
0.4334500000  0.6633870000  0.5120650000  1  1  1
0.4324340000  0.6634750000  0.5348760000  1  1  1
0.4666070000  0.6581560000  0.5248830000  1  1  1
0.4658110000  0.6583370000  0.5474800000  1  1  1
0.4075270000  0.6643070000  0.5550400000  1  1  1
0.4128730000  0.6643410000  0.5673830000  1  1  1
0.4913710000  0.6510910000  0.5723340000  1  1  1
0.4902600000  0.6514700000  0.5936810000  1  1  1
0.4090880000  0.6643290000  0.5965330000  1  1  1
0.3989990000  0.6640120000  0.6181540000  1  1  1
0.4298260000  0.6636800000  0.6089920000  1  1  1
0.4380930000  0.6629330000  0.6304440000  1  1  1
0.3847740000  0.6628610000  0.6375460000  1  1  1
0.3879650000  0.6631910000  0.6483760000  1  1  1
0.4457050000  0.6619940000  0.6551530000  1  1  1
0.4152330000  0.6643190000  0.6674610000  1  1  1
0.4522830000  0.6609880000  0.6770530000  1  1  1
0.4131140000  0.6643390000  0.6897530000  1  1  1
0.4537100000  0.6607450000  0.7007260000  1  1  1
0.5168720000  0.6406620000  0.7008770000  1  1  1
0.3991580000  0.6640200000  0.7109470000  1  1  1
0.4091490000  0.6643290000  0.7245320000  1  1  1
0.4805350000  0.6545320000  0.7309190000  1  1  1
0.4754600000  0.6559550000  0.7439160000  1  1  1
0.4047510000  0.6642430000  0.7505270000  1  1  1
0.4162040000  0.6643030000  0.7623590000  1  1  1
0.5217540000  0.6382600000  0.7725160000  1  1  1
0.4986970000  0.6484410000  0.7850130000  1  1  1
0.4216910000  0.6641430000  0.7921250000  1  1  1
0.4155030000  0.6643150000  0.8063740000  1  1  1
0.4867390000  0.6526310000  0.8140820000  1  1  1
0.4837620000  0.6535660000  0.8275010000  1  1  1
0.4094870000  0.6643330000  0.8364590000  1  1  1
0.4202830000  0.6641960000  0.8484460000  1  1  1
0.4864440000  0.6527250000  0.8538550000  1  1  1
0.4874460000  0.6524020000  0.8670700000  1  1  1
0.4171540000  0.6642840000  0.8737180000  1  1  1
0.4170640000  0.6642860000  0.8870500000  1  1  1
0.4863380000  0.6527590000  0.8936450000  1  1  1
0.4854670000  0.6530350000  0.9071520000  1  1  1
0.4122380000  0.6643430000  0.9135550000  1  1  1
0.4073410000  0.6643030000  0.9270230000  1  1  1
0.4776690000  0.6553500000  0.9351270000  1  1  1
0.4581390000  0.6599370000  0.9501550000  1  1  1
0.3808930000  0.6624010000  0.9527950000  1  1  1
0.3453810000  0.6552160000  0.9647530000  1  1  1
0.4636010000  0.6588240000  0.9741580000  1  1  1
0.4864260000  0.6527310000  0.9868990000  1  1  1
0.4162710000  0.6643020000  0.9943270000  1  1  1
0.2699760000  0.6188670000  0.0053080000  1  1  1
0.3397520000  0.6535610000  0.0130720000  1  1  1
0.3390490000  0.6533440000  0.0264410000  1  1  1
0.2751140000  0.6224870000  0.0327070000  1  1  1
0.2730430000  0.6210530000  0.0463800000  1  1  1
0.3379190000  0.6529900000  0.0533520000  1  1  1
0.3376960000  0.6529200000  0.0664770000  1  1  1
0.2730630000  0.6210670000  0.0732780000  1  1  1
0.2752720000  0.6225950000  0.0864560000  1  1  1
0.3412160000  0.6540060000  0.0931300000  1  1  1
0.3400170000  0.6536420000  0.1061610000  1  1  1
0.2771420000  0.6238600000  0.1117730000  1  1  1
0.2672490000  0.6168590000  0.1233770000  1  1  1
0.3312140000  0.6507640000  0.1327070000  1  1  1
0.3272250000  0.6493360000  0.1458480000  1  1  1
0.2632490000  0.6137990000  0.1524830000  1  1  1
0.2659530000  0.6158830000  0.1659270000  1  1  1
0.3252530000  0.6486000000  0.1724500000  1  1  1
0.3274910000  0.6494340000  0.1847530000  1  1  1
0.2719670000  0.6202940000  0.1918130000  1  1  1
0.2788310000  0.6249790000  0.2036090000  1  1  1
0.3441590000  0.6548690000  0.2091110000  1  1  1
0.3394420000  0.6534660000  0.2205470000  1  1  1
0.2622910000  0.6130460000  0.2235550000  1  1  1
0.2732200000  0.6211770000  0.2455250000  1  1  1
0.3936180000  0.6636740000  0.2582310000  1  1  1
0.3630300000  0.6594720000  0.2681290000  1  1  1
0.3027550000  0.6387540000  0.2737250000  1  1  1
0.2968450000  0.6356920000  0.2961470000  1  1  1
0.3305740000  0.6505400000  0.2862570000  1  1  1
0.3306010000  0.6505500000  0.3091560000  1  1  1
0.2796240000  0.6254980000  0.3168400000  1  1  1
0.2809010000  0.6263240000  0.3294960000  1  1  1
0.3491660000  0.6562460000  0.3385560000  1  1  1
0.3392710000  0.6534130000  0.3513150000  1  1  1
0.2757680000  0.6229330000  0.3565310000  1  1  1
0.2642890000  0.6146080000  0.3701790000  1  1  1
0.3092260000  0.6418710000  0.3817290000  1  1  1
0.3820650000  0.6625470000  0.3819530000  1  1  1
0.2650620000  0.6152040000  0.3921390000  1  1  1
0.2736230000  0.6214580000  0.4065020000  1  1  1
0.3418370000  0.6541910000  0.4134410000  1  1  1
0.3381430000  0.6530610000  0.4283800000  1  1  1
0.2750640000  0.6224530000  0.4344810000  1  1  1
0.2658720000  0.6158210000  0.4495880000  1  1  1
0.3076670000  0.6411410000  0.4601400000  1  1  1
0.3665790000  0.6601620000  0.4601660000  1  1  1
0.2632040000  0.6137650000  0.4713330000  1  1  1
0.2741400000  0.6218170000  0.4860800000  1  1  1
0.3421350000  0.6542800000  0.4921480000  1  1  1
0.3496850000  0.6563830000  0.5070190000  1  1  1
0.2864700000  0.6297890000  0.5148640000  1  1  1
0.2934960000  0.6338620000  0.5297740000  1  1  1
0.3568100000  0.6581300000  0.5368530000  1  1  1
0.3448790000  0.6550740000  0.5484810000  1  1  1
0.2837570000  0.6281280000  0.5516750000  1  1  1
0.2702000000  0.6190290000  0.5647430000  1  1  1
0.3394490000  0.6534680000  0.5739210000  1  1  1
0.3306650000  0.6505720000  0.5878280000  1  1  1
0.2506000000  0.6031490000  0.5920360000  1  1  1
0.2236940000  0.5740810000  0.6043440000  1  1  1
0.3130610000  0.6436060000  0.6217870000  1  1  1
0.3146530000  0.6443030000  0.6322090000  1  1  1
0.2626220000  0.6133070000  0.6394810000  1  1  1
0.2695440000  0.6185530000  0.6499850000  1  1  1
0.3259440000  0.6488600000  0.6547580000  1  1  1
0.3360470000  0.6523900000  0.6656530000  1  1  1
0.2756320000  0.6228410000  0.6739830000  1  1  1
0.2760340000  0.6231140000  0.6862040000  1  1  1
0.3349770000  0.6520400000  0.6931560000  1  1  1
0.3310050000  0.6506920000  0.7061760000  1  1  1
0.2712030000  0.6197500000  0.7128450000  1  1  1
0.2730080000  0.6210280000  0.7260410000  1  1  1
0.3365730000  0.6525610000  0.7320980000  1  1  1
0.3388680000  0.6532880000  0.7451300000  1  1  1
0.2742070000  0.6218630000  0.7524200000  1  1  1
0.2769620000  0.6237390000  0.7658970000  1  1  1
0.3447870000  0.6550480000  0.7715980000  1  1  1
0.3481030000  0.6559640000  0.7852490000  1  1  1
0.2768130000  0.6236400000  0.7923720000  1  1  1
0.2739470000  0.6216830000  0.8047380000  1  1  1
0.3262070000  0.6489590000  0.8120630000  1  1  1
0.2940310000  0.6341590000  0.8252920000  1  1  1
0.3251750000  0.6485710000  0.8347560000  1  1  1
0.2948380000  0.6346030000  0.8479060000  1  1  1
0.3510660000  0.6567390000  0.8550720000  1  1  1
0.3490970000  0.6562280000  0.8673860000  1  1  1
0.2878300000  0.6306030000  0.8736540000  1  1  1
0.2858720000  0.6294270000  0.8864040000  1  1  1
0.3453090000  0.6551960000  0.8932810000  1  1  1
0.3418830000  0.6542050000  0.9063260000  1  1  1
0.2751320000  0.6225000000  0.9122930000  1  1  1
0.2722130000  0.6204690000  0.9253840000  1  1  1
0.3342760000  0.6518080000  0.9325820000  1  1  1
0.3277390000  0.6495240000  0.9448500000  1  1  1
0.2678730000  0.6173230000  0.9506210000  1  1  1
0.2746450000  0.6221650000  0.9626840000  1  1  1
0.3810430000  0.6624210000  0.9743860000  1  1  1
0.3523180000  0.6570550000  0.9869180000  1  1  1
0.2746950000  0.6221990000  0.9918350000  1  1  1
0.1847090000  0.4931300000  0.0068470000  1  1  1
0.2201420000  0.5693550000  0.0121580000  1  1  1
0.2229050000  0.5730540000  0.0257670000  1  1  1
0.1913590000  0.5153270000  0.0318020000  1  1  1
0.1880900000  0.5055150000  0.0439940000  1  1  1
0.2178110000  0.5661040000  0.0529250000  1  1  1
0.2178960000  0.5662240000  0.0666730000  1  1  1
0.1895040000  0.5099570000  0.0752210000  1  1  1
0.1938570000  0.5219120000  0.0872480000  1  1  1
0.2276540000  0.5790570000  0.0928130000  1  1  1
0.2286380000  0.5802480000  0.1052950000  1  1  1
0.1962730000  0.5277210000  0.1121610000  1  1  1
0.1933000000  0.5204980000  0.1338580000  1  1  1
0.2080680000  0.5509590000  0.1246990000  1  1  1
0.2079830000  0.5508130000  0.1469100000  1  1  1
0.1865140000  0.5001080000  0.1543210000  1  1  1
0.1880380000  0.5053440000  0.1668600000  1  1  1
0.2183610000  0.5668830000  0.1728690000  1  1  1
0.2208660000  0.5703400000  0.1861870000  1  1  1
0.1903870000  0.5125720000  0.1930690000  1  1  1
0.1918890000  0.5167800000  0.2066850000  1  1  1
0.2354990000  0.5881170000  0.2117150000  1  1  1
0.2404270000  0.5933410000  0.2333500000  1  1  1
0.1926650000  0.5188510000  0.2360950000  1  1  1
0.1906180000  0.5132380000  0.2485330000  1  1  1
0.2289530000  0.5806270000  0.2548590000  1  1  1
0.2350310000  0.5876050000  0.2679970000  1  1  1
0.1969590000  0.5292880000  0.2753870000  1  1  1
0.1968890000  0.5291300000  0.2886830000  1  1  1
0.2345900000  0.5871170000  0.2977700000  1  1  1
0.2270760000  0.5783480000  0.3099700000  1  1  1
0.1937480000  0.5216360000  0.3149520000  1  1  1
0.1921200000  0.5174050000  0.3275160000  1  1  1
0.2273740000  0.5787140000  0.3351850000  1  1  1
0.2246540000  0.5753150000  0.3482160000  1  1  1
0.1915170000  0.5157650000  0.3538960000  1  1  1
0.1906870000  0.5134350000  0.3669970000  1  1  1
0.2190840000  0.5678950000  0.3739890000  1  1  1
0.2176760000  0.5659120000  0.3873410000  1  1  1
0.1891050000  0.5087380000  0.3935210000  1  1  1
0.1878260000  0.5046450000  0.4076860000  1  1  1
0.2202190000  0.5694610000  0.4143990000  1  1  1
0.2234580000  0.5737750000  0.4279230000  1  1  1
0.1945070000  0.5235230000  0.4365240000  1  1  1
0.1976010000  0.5307240000  0.4485030000  1  1  1
0.2208350000  0.5702980000  0.4538830000  1  1  1
0.2185560000  0.5671570000  0.4668610000  1  1  1
0.1789310000  0.4446470000  0.4654160000  1  1  1
0.1893290000  0.5094240000  0.4868480000  1  1  1
0.2242380000  0.5747830000  0.4935880000  1  1  1
0.2262840000  0.5773680000  0.5077630000  1  1  1
0.1923280000  0.5179620000  0.5136100000  1  1  1
0.1889980000  0.5084080000  0.5259260000  1  1  1
0.2044830000  0.5446000000  0.5367630000  1  1  1
0.2466820000  0.5995160000  0.5391710000  1  1  1
0.1827730000  0.4842270000  0.5424890000  1  1  1
0.1862520000  0.4991550000  0.5642150000  1  1  1
0.2208130000  0.5702690000  0.5697750000  1  1  1
0.2138840000  0.5603260000  0.5818630000  1  1  1
0.1831480000  0.4861080000  0.5834990000  1  1  1
0.1853530000  0.4957350000  0.6033240000  1  1  1
0.2406270000  0.5935450000  0.6159550000  1  1  1
0.2005680000  0.5370170000  0.6267770000  1  1  1
0.2111770000  0.5560980000  0.6367070000  1  1  1
0.1944030000  0.5232670000  0.6483290000  1  1  1
0.2232430000  0.5734960000  0.6561330000  1  1  1
0.2220300000  0.5719000000  0.6675750000  1  1  1
0.1900200000  0.5115000000  0.6739040000  1  1  1
0.1901060000  0.5117530000  0.6864780000  1  1  1
0.2229900000  0.5731660000  0.6929670000  1  1  1
0.2226010000  0.5726550000  0.7065020000  1  1  1
0.1900850000  0.5116920000  0.7132040000  1  1  1
0.1901570000  0.5119010000  0.7266130000  1  1  1
0.2225700000  0.5726140000  0.7330570000  1  1  1
0.2233010000  0.5735710000  0.7463540000  1  1  1
0.1903730000  0.5125320000  0.7532770000  1  1  1
0.1905940000  0.5131700000  0.7666570000  1  1  1
0.2247860000  0.5754830000  0.7731600000  1  1  1
0.2254560000  0.5763310000  0.7858660000  1  1  1
0.1901540000  0.5118920000  0.7929480000  1  1  1
0.1906190000  0.5132410000  0.8060120000  1  1  1
0.2220190000  0.5718850000  0.8116110000  1  1  1
0.2286400000  0.5802510000  0.8236720000  1  1  1
0.1930110000  0.5197530000  0.8330980000  1  1  1
0.1939370000  0.5221100000  0.8475090000  1  1  1
0.2306120000  0.5825900000  0.8542080000  1  1  1
0.2354110000  0.5880220000  0.8688100000  1  1  1
0.1819190000  0.4795590000  0.8794870000  1  1  1
0.2042230000  0.5441190000  0.8795510000  1  1  1
0.2326010000  0.5848840000  0.8906340000  1  1  1
0.2236950000  0.5740820000  0.9044660000  1  1  1
0.1899070000  0.5111640000  0.9107120000  1  1  1
0.1898610000  0.5110290000  0.9250610000  1  1  1
0.2211690000  0.5707490000  0.9317240000  1  1  1
0.2208810000  0.5703610000  0.9448280000  1  1  1
0.1897770000  0.5107790000  0.9518500000  1  1  1
0.1918230000  0.5166030000  0.9642550000  1  1  1
0.2277140000  0.5791290000  0.9701330000  1  1  1
0.2235500000  0.5738950000  0.9825780000  1  1  1
0.1849410000  0.4940840000  0.9845300000  1  1  1
0.1936220000  0.3675710000  0.0092610000  1  1  1
0.1789730000  0.4402840000  0.0146150000  1  1  1
0.1789880000  0.4493170000  0.0259450000  1  1  1
0.1849750000  0.3946650000  0.0337090000  1  1  1
0.1891570000  0.3799920000  0.0543580000  1  1  1
0.1802230000  0.4213130000  0.0453310000  1  1  1
0.1883980000  0.3823770000  0.0660350000  1  1  1
0.1797810000  0.4256730000  0.0743890000  1  1  1
0.1823730000  0.4067730000  0.0857970000  1  1  1
0.1798620000  0.4640900000  0.0928030000  1  1  1
0.1791230000  0.4533760000  0.1040860000  1  1  1
0.1926580000  0.3700570000  0.1049650000  1  1  1
0.2004830000  0.3520450000  0.1269570000  1  1  1
0.1790900000  0.4363220000  0.1358490000  1  1  1
0.1794110000  0.4303330000  0.1480390000  1  1  1
0.1924530000  0.3705960000  0.1538640000  1  1  1
0.1918400000  0.3722420000  0.1665580000  1  1  1
0.1789390000  0.4426210000  0.1733040000  1  1  1
0.1789350000  0.4430820000  0.1861980000  1  1  1
0.1889650000  0.3805860000  0.1917300000  1  1  1
0.1918690000  0.3721610000  0.2035640000  1  1  1
0.1789390000  0.4462860000  0.2133760000  1  1  1
0.1789370000  0.4427900000  0.2266980000  1  1  1
0.1916970000  0.3726300000  0.2334440000  1  1  1
0.1904260000  0.3762040000  0.2476120000  1  1  1
0.1789850000  0.4491740000  0.2545860000  1  1  1
0.1790670000  0.4519730000  0.2681800000  1  1  1
0.1877770000  0.3844070000  0.2754700000  1  1  1
0.1847130000  0.3957450000  0.2895660000  1  1  1
0.1799810000  0.4653020000  0.2947070000  1  1  1
0.1796130000  0.4612650000  0.3075020000  1  1  1
0.1854950000  0.3925980000  0.3115120000  1  1  1
0.1891950000  0.3798730000  0.3256150000  1  1  1
0.1789860000  0.4492290000  0.3333430000  1  1  1
0.1789580000  0.4478190000  0.3466610000  1  1  1
0.1878490000  0.3841680000  0.3532220000  1  1  1
0.1857780000  0.3915100000  0.3669720000  1  1  1
0.1791760000  0.4545240000  0.3725610000  1  1  1
0.1789810000  0.4490000000  0.3860890000  1  1  1
0.1883570000  0.3825100000  0.3895020000  1  1  1
0.1963760000  0.3609310000  0.4047410000  1  1  1
0.1801240000  0.4222070000  0.4141420000  1  1  1
0.1832010000  0.4025250000  0.4304520000  1  1  1
0.2139710000  0.3284300000  0.4344970000  1  1  1
0.1791020000  0.4528770000  0.4377290000  1  1  1
0.1804470000  0.4694990000  0.4513810000  1  1  1
0.1893290000  0.5094260000  0.4731120000  1  1  1
0.1898250000  0.3779680000  0.4712450000  1  1  1
0.1895360000  0.3788330000  0.4865680000  1  1  1
0.1789620000  0.4480150000  0.4931330000  1  1  1
0.1790030000  0.4499060000  0.5064010000  1  1  1
0.1870080000  0.3870260000  0.5132480000  1  1  1
0.1863280000  0.3894580000  0.5264530000  1  1  1
0.1790440000  0.4512970000  0.5313850000  1  1  1
0.1796260000  0.4614200000  0.5524040000  1  1  1
0.1874560000  0.3854870000  0.5551260000  1  1  1
0.1885480000  0.3818980000  0.5676240000  1  1  1
0.1791790000  0.4546010000  0.5723320000  1  1  1
0.1793370000  0.4574310000  0.5929150000  1  1  1
0.1889670000  0.3805800000  0.5955220000  1  1  1
0.1913410000  0.3736100000  0.6069000000  1  1  1
0.1789310000  0.4442980000  0.6124450000  1  1  1
0.1792040000  0.4550920000  0.6231610000  1  1  1
0.1907440000  0.3752920000  0.6319950000  1  1  1
0.1930270000  0.3690940000  0.6446400000  1  1  1
0.1789550000  0.4412510000  0.6531690000  1  1  1
0.1790300000  0.4380300000  0.6667380000  1  1  1
0.1915080000  0.3731490000  0.6741900000  1  1  1
0.1895630000  0.3787520000  0.6873500000  1  1  1
0.1789310000  0.4449020000  0.6933100000  1  1  1
0.1789320000  0.4451520000  0.7066940000  1  1  1
0.1905200000  0.3759320000  0.7135500000  1  1  1
0.1904590000  0.3761080000  0.7267220000  1  1  1
0.1789310000  0.4444440000  0.7333330000  1  1  1
0.1789310000  0.4444620000  0.7467470000  1  1  1
0.1903420000  0.3764470000  0.7534440000  1  1  1
0.1904200000  0.3762220000  0.7668730000  1  1  1
0.1789310000  0.4439690000  0.7734700000  1  1  1
0.1789310000  0.4444700000  0.7866040000  1  1  1
0.1906700000  0.3755010000  0.7936920000  1  1  1
0.1900100000  0.3774200000  0.8070540000  1  1  1
0.1789330000  0.4454740000  0.8133390000  1  1  1
0.1789690000  0.4484380000  0.8270060000  1  1  1
0.1891620000  0.3799760000  0.8340080000  1  1  1
0.1897700000  0.3781320000  0.8471100000  1  1  1
0.1789320000  0.4451920000  0.8545220000  1  1  1
0.1793770000  0.4308400000  0.8686720000  1  1  1
0.1961340000  0.3614890000  0.8732880000  1  1  1
0.1963200000  0.3610600000  0.8859850000  1  1  1
0.1794870000  0.4292610000  0.8905010000  1  1  1
0.1789390000  0.4425790000  0.9044240000  1  1  1
0.1905250000  0.3759190000  0.9120790000  1  1  1
0.1897910000  0.3780690000  0.9255300000  1  1  1