ATOMIC_SPECIES
Al 26.981539 al.lda.lps

LATTICE_CONSTANT
7.50241114482

LATTICE_VECTORS
0.638898455914 2.44595791969e-09 1.39790057537e-09 #latvec1
0.319449230075 0.553302292037 1.39790057537e-09 #latvec2
2.45357273336e-08 1.41657087808e-08 13.7086042214 #latvec3

ATOMIC_POSITIONS
Direct

Al #label
0 #magnetism
21 #number of atoms
0  0  0  m  0  0  1
0.333333333332  0.333333333332  0.0476190630038  m  0  0  1
0.666666666668  0.666666666668  0.095238113947  m  0  0  1
6.68402307561e-16  1  0.142857166816  m  0  0  1
0.333333333332  0.333333333332  0.190476218959  m  0  0  1
0.666666666668  0.666666666668  0.238095263142  m  0  0  1
1.31242340453e-16  1  0.285714307104  m  0  0  1
0.333333333332  0.333333333332  0.33333335244  m  0  0  1
0.666666666668  0.666666666668  0.380952394099  m  0  0  1
6.49555884455e-16  1  0.42857143652  m  0  0  1
0.333333333332  0.333333333332  0.476190479153  m  0  0  1
0.666666666668  0.666666666668  0.523809520847  m  0  0  1
6.96980895212e-17  6.96981226084e-17  0.57142856348  m  0  0  1
0.333333333332  0.333333333332  0.619047605901  m  0  0  1
0.666666666668  0.666666666668  0.66666664756  m  0  0  1
6.82810000917e-17  6.82810397964e-17  0.714285692896  m  0  0  1
0.333333333332  0.333333333332  0.761904736858  m  0  0  1
0.666666666668  0.666666666668  0.809523781041  m  0  0  1
7.317422671e-17  7.31742167838e-17  0.857142833184  m  0  0  1
0.333333333332  0.333333333332  0.904761886053  m  0  0  1
0.666666666668  0.666666666668  0.952380936996  m  0  0  1
