ATOMIC_SPECIES
Al 26.981539 al.lda.lps

LATTICE_CONSTANT
7.50241114482

LATTICE_VECTORS
0.638898455914 2.44595791969e-09 1.39790057537e-09 #latvec1
0.319449230075 0.553302292037 1.39790057537e-09 #latvec2
2.45357273336e-08 1.41657087808e-08 13.7086042214 #latvec3

ATOMIC_POSITIONS
Direct

Al #label
0 #magnetism
21 #number of atoms
0  0  0  m  0  0  1
0.333333333332  0.333333333332  0.0476190631687  m  0  0  1
0.666666666668  0.666666666668  0.0952381140267  m  0  0  1
6.64452315822e-16  1  0.142857166971  m  0  0  1
0.333333333332  0.333333333332  0.190476219185  m  0  0  1
0.666666666668  0.666666666668  0.238095263388  m  0  0  1
2.38875729441e-16  1  0.285714307236  m  0  0  1
0.333333333332  0.333333333332  0.333333352568  m  0  0  1
0.666666666668  0.666666666668  0.380952394174  m  0  0  1
6.46394426623e-16  1  0.428571436643  m  0  0  1
0.333333333332  0.333333333332  0.47619047921  m  0  0  1
0.666666666668  0.666666666668  0.52380952079  m  0  0  1
7.28595440439e-17  7.28595820942e-17  0.571428563357  m  0  0  1
0.333333333332  0.333333333332  0.619047605826  m  0  0  1
0.666666666668  0.666666666668  0.666666647432  m  0  0  1
7.16699127392e-17  7.16699590614e-17  0.714285692764  m  0  0  1
0.333333333332  0.333333333332  0.761904736612  m  0  0  1
0.666666666668  0.666666666668  0.809523780815  m  0  0  1
7.71242126582e-17  7.71242060408e-17  0.857142833029  m  0  0  1
0.333333333332  0.333333333332  0.904761885973  m  0  0  1
0.666666666668  0.666666666668  0.952380936831  m  0  0  1
