ATOMIC_SPECIES
Al 26.981539 al.lda.lps

LATTICE_CONSTANT
7.50241114482

LATTICE_VECTORS
0.638898455914 2.44595791969e-09 1.39790057537e-09 #latvec1
0.319449230075 0.553302292037 1.39790057537e-09 #latvec2
2.45357273336e-08 1.41657087808e-08 13.7086042214 #latvec3

ATOMIC_POSITIONS
Direct

Al #label
0 #magnetism
21 #number of atoms
0  0  0  m  0  0  1
0.333333333332  0.333333333332  0.0476190617963  m  0  0  1
0.666666666668  0.666666666668  0.0952381131759  m  0  0  1
6.95353639455e-16  1  0.142857165764  m  0  0  1
0.333333333332  0.333333333332  0.190476217521  m  0  0  1
0.666666666668  0.666666666668  0.238095261674  m  0  0  1
4.43815618208e-17  1  0.28571430616  m  0  0  1
0.333333333332  0.333333333332  0.3333333516  m  0  0  1
0.666666666668  0.666666666668  0.38095239341  m  0  0  1
2.29159815685e-16  1  0.428571435594  m  0  0  1
0.333333333332  0.333333333332  0.476190478636  m  0  0  1
0.666666666668  0.666666666668  0.523809521364  m  0  0  1
4.60049600212e-17  4.60049765648e-17  0.571428564406  m  0  0  1
0.333333333332  0.333333333332  0.61904760659  m  0  0  1
0.666666666668  0.666666666668  0.6666666484  m  0  0  1
4.41194812243e-17  4.41195043853e-17  0.71428569384  m  0  0  1
0.333333333332  0.333333333332  0.761904738326  m  0  0  1
0.666666666668  0.666666666668  0.809523782479  m  0  0  1
4.62228890254e-17  4.62228923341e-17  0.857142834236  m  0  0  1
0.333333333332  0.333333333332  0.904761886824  m  0  0  1
0.666666666668  0.666666666668  0.952380938204  m  0  0  1
