ATOMIC_SPECIES
Al 26.981539 al.lda.lps

LATTICE_CONSTANT
7.50241114482

LATTICE_VECTORS
0.703259267733 -4.524416263e-11 5.17938022821e-13 #latvec1
0.351629633827 0.609040391326 5.17938022821e-13 #latvec2
8.88078908139e-12 5.12732596676e-12 12.2735417987 #latvec3

ATOMIC_POSITIONS
Direct

Al #label
0 #magnetism
21 #number of atoms
0  0  0  m  0  0  1
0.333333333332  0.333333333332  0.0485713314556  m  0  0  1
0.666666666668  0.666666666668  0.0965222157236  m  0  0  1
1  1  0.144508985793  m  0  0  1
0.333333333332  0.333333333332  0.192337046349  m  0  0  1
0.666666666668  0.666666666668  0.239611156194  m  0  0  1
1  1  0.286935493616  m  0  0  1
0.333333333332  0.333333333332  0.334397427167  m  0  0  1
0.666666666668  0.666666666668  0.381584558503  m  0  0  1
1  1  0.428849781091  m  0  0  1
0.333333333332  0.333333333332  0.476251110223  m  0  0  1
0.666666666668  0.666666666668  0.523748889777  m  0  0  1
2.34336527421e-15  2.34336527422e-15  0.571150218909  m  0  0  1
0.333333333332  0.333333333332  0.618415441497  m  0  0  1
0.666666666668  0.666666666668  0.665602572833  m  0  0  1
1.02809782079e-14  1.02809782079e-14  0.713064506384  m  0  0  1
0.333333333332  0.333333333332  0.760388843806  m  0  0  1
0.666666666668  0.666666666668  0.807662953651  m  0  0  1
1.39063636804e-14  1.39063636804e-14  0.855491014207  m  0  0  1
0.333333333332  0.333333333332  0.903477784276  m  0  0  1
0.666666666668  0.666666666668  0.951428668544  m  0  0  1
