ATOMIC_SPECIES
Al 26.981539 al.lda.lps

LATTICE_CONSTANT
7.50241114482

LATTICE_VECTORS
0.703259267733 -4.524416263e-11 5.17938022821e-13 #latvec1
0.351629633827 0.609040391326 5.17938022821e-13 #latvec2
8.88078908139e-12 5.12732596676e-12 12.2735417987 #latvec3

ATOMIC_POSITIONS
Direct

Al #label
0 #magnetism
21 #number of atoms
0  0  0  m  0  0  1
0.333333333332  0.333333333332  0.0476190606845  m  0  0  1
0.666666666668  0.666666666668  0.0952381128216  m  0  0  1
6.99666602038e-16  1  0.142857166421  m  0  0  1
0.333333333332  0.333333333332  0.190476219119  m  0  0  1
0.666666666668  0.666666666668  0.238095264124  m  0  0  1
1  7.79724653431e-18  0.285714309234  m  0  0  1
0.333333333332  0.333333333332  0.333333354996  m  0  0  1
0.666666666668  0.666666666668  0.38095239532  m  0  0  1
1  1.76147125895e-18  0.428571435805  m  0  0  1
0.333333333332  0.333333333332  0.476190477968  m  0  0  1
0.666666666668  0.666666666668  0.523809522032  m  0  0  1
6.09038989025e-20  6.09039037493e-20  0.571428564195  m  0  0  1
0.333333333332  0.333333333332  0.61904760468  m  0  0  1
0.666666666668  0.666666666668  0.666666645004  m  0  0  1
1.98006847845e-19  1.98006851884e-19  0.714285690766  m  0  0  1
0.333333333332  0.333333333332  0.761904735876  m  0  0  1
0.666666666668  0.666666666668  0.809523780881  m  0  0  1
1.98377591973e-19  1.98377600858e-19  0.857142833579  m  0  0  1
0.333333333332  0.333333333332  0.904761887178  m  0  0  1
0.666666666668  0.666666666668  0.952380939316  m  0  0  1
