ATOMIC_SPECIES
Al 26.981539 al.lda.lps

LATTICE_CONSTANT
7.50241114482

LATTICE_VECTORS
0.703259267733 -4.524416263e-11 5.17938022821e-13 #latvec1
0.351629633827 0.609040391326 5.17938022821e-13 #latvec2
8.88078908139e-12 5.12732596676e-12 12.2735417987 #latvec3

ATOMIC_POSITIONS
Direct

Al #label
0 #magnetism
21 #number of atoms
0  0  0  m  0  0  1
0.333333333332  0.333333333332  0.0485910739  m  0  0  1
0.666666666668  0.666666666668  0.0965488376994  m  0  0  1
1  1  0.144543231273  m  0  0  1
0.333333333332  0.333333333332  0.192375625019  m  0  0  1
0.666666666668  0.666666666668  0.239642583723  m  0  0  1
1  1  0.286960811309  m  0  0  1
0.333333333332  0.333333333332  0.33441948762  m  0  0  1
0.666666666668  0.666666666668  0.381597664606  m  0  0  1
1  1  0.428855551806  m  0  0  1
0.333333333332  0.333333333332  0.476252367268  m  0  0  1
0.666666666668  0.666666666668  0.523747632732  m  0  0  1
2.39194717472e-15  2.39194717473e-15  0.571144448194  m  0  0  1
0.333333333332  0.333333333332  0.618402335394  m  0  0  1
0.666666666668  0.666666666668  0.66558051238  m  0  0  1
1.04941201648e-14  1.04941201649e-14  0.713039188691  m  0  0  1
0.333333333332  0.333333333332  0.760357416277  m  0  0  1
0.666666666668  0.666666666668  0.807624374981  m  0  0  1
1.41946659712e-14  1.41946659713e-14  0.855456768727  m  0  0  1
0.333333333332  0.333333333332  0.903451162301  m  0  0  1
0.666666666668  0.666666666668  0.9514089261  m  0  0  1
