ATOMIC_SPECIES
Al 26.981539 al.lda.lps

LATTICE_CONSTANT
7.50241114482

LATTICE_VECTORS
0.706144902823 -1.13110406575e-11 1.29484505705e-13 #latvec1
0.353072451401 0.611539424603 1.29484505705e-13 #latvec2
2.22019727035e-12 1.28183149169e-12 12.1616521894 #latvec3

ATOMIC_POSITIONS
Direct

Al #label
0 #magnetism
21 #number of atoms
0  0  0  m  0  0  1
0.333333333332  0.333333333332  0.0476190476184  m  0  0  1
0.666666666668  0.666666666668  0.0952380952385  m  0  0  1
0  0  0.142857142857  m  0  0  1
0.333333333332  0.333333333332  0.190476190475  m  0  0  1
0.666666666668  0.666666666668  0.238095238095  m  0  0  1
0  0  0.285714285714  m  0  0  1
0.333333333332  0.333333333332  0.333333333332  m  0  0  1
0.666666666668  0.666666666668  0.380952380952  m  0  0  1
0  0  0.428571428571  m  0  0  1
0.333333333332  0.333333333332  0.476190476191  m  0  0  1
0.666666666668  0.666666666668  0.523809523809  m  0  0  1
0  0  0.571428571429  m  0  0  1
0.333333333332  0.333333333332  0.619047619048  m  0  0  1
0.666666666668  0.666666666668  0.666666666668  m  0  0  1
0  0  0.714285714286  m  0  0  1
0.333333333332  0.333333333332  0.761904761905  m  0  0  1
0.666666666668  0.666666666668  0.809523809525  m  0  0  1
0  0  0.857142857143  m  0  0  1
0.333333333332  0.333333333332  0.904761904761  m  0  0  1
0.666666666668  0.666666666668  0.952380952382  m  0  0  1
