ATOMIC_SPECIES
Al 26.981539 al.lda.lps

LATTICE_CONSTANT
7.50241114482

LATTICE_VECTORS
0.638898455914 2.44595791969e-09 1.39790057537e-09 #latvec1
0.319449230075 0.553302292037 1.39790057537e-09 #latvec2
2.45357273336e-08 1.41657087808e-08 13.7086042214 #latvec3

ATOMIC_POSITIONS
Direct

Al #label
0 #magnetism
21 #number of atoms
0  0  0  m  0  0  1
0.333333333332  0.333333333332  0.0476190625694  m  0  0  1
0.666666666668  0.666666666668  0.0952381138232  m  0  0  1
6.79702193193e-16  1  0.142857166375  m  0  0  1
0.333333333332  0.333333333332  0.190476218267  m  0  0  1
0.666666666668  0.666666666668  0.238095262337  m  0  0  1
2.94382868019e-17  1  0.285714306744  m  0  0  1
0.333333333332  0.333333333332  0.333333352059  m  0  0  1
0.666666666668  0.666666666668  0.380952393968  m  0  0  1
1.02514701886e-16  1  0.428571436205  m  0  0  1
0.333333333332  0.333333333332  0.476190479045  m  0  0  1
0.666666666668  0.666666666668  0.523809520955  m  0  0  1
6.1627771358e-17  6.16277862473e-17  0.571428563795  m  0  0  1
0.333333333332  0.333333333332  0.619047606032  m  0  0  1
0.666666666668  0.666666666668  0.666666647941  m  0  0  1
5.90627603791e-17  5.90627802314e-17  0.714285693256  m  0  0  1
0.333333333332  0.333333333332  0.761904737663  m  0  0  1
0.666666666668  0.666666666668  0.809523781733  m  0  0  1
6.18743340463e-17  6.18743406637e-17  0.857142833625  m  0  0  1
0.333333333332  0.333333333332  0.904761886177  m  0  0  1
0.666666666668  0.666666666668  0.952380937431  m  0  0  1
