ATOMIC_SPECIES
Al 26.981539 al.lda.lps

LATTICE_CONSTANT
7.50241114482

LATTICE_VECTORS
0.703259267733 -4.524416263e-11 5.17938022821e-13 #latvec1
0.351629633827 0.609040391326 5.17938022821e-13 #latvec2
8.88078908139e-12 5.12732596676e-12 12.2735417987 #latvec3

ATOMIC_POSITIONS
Direct

Al #label
0 #magnetism
21 #number of atoms
0  0  0  m  0  0  1
0.333333333332  0.333333333332  0.0476197881851  m  0  0  1
0.666666666668  0.666666666668  0.0952390938661  m  0  0  1
4.4408920985e-16  1  0.142858427453  m  0  0  1
0.333333333332  0.333333333332  0.190477637615  m  0  0  1
0.666666666668  0.666666666668  0.238096416986  m  0  0  1
1  0  0.285715235416  m  0  0  1
0.333333333332  0.333333333332  0.333334160851  m  0  0  1
0.666666666668  0.666666666668  0.380952872581  m  0  0  1
1  0  0.428571645038  m  0  0  1
0.333333333332  0.333333333332  0.476190523344  m  0  0  1
0.666666666668  0.666666666668  0.523809476656  m  0  0  1
1.82237512998e-18  1.82237513402e-18  0.571428354962  m  0  0  1
0.333333333332  0.333333333332  0.619047127419  m  0  0  1
0.666666666668  0.666666666668  0.666665839149  m  0  0  1
7.9952533248e-18  7.99525332642e-18  0.714284764584  m  0  0  1
0.333333333332  0.333333333332  0.761903583014  m  0  0  1
0.666666666668  0.666666666668  0.809522362385  m  0  0  1
1.08146227056e-17  1.0814622712e-17  0.857141572547  m  0  0  1
0.333333333332  0.333333333332  0.904760906134  m  0  0  1
0.666666666668  0.666666666668  0.952380211815  m  0  0  1
