ATOMIC_SPECIES
Al 26.981539 al.lda.lps

LATTICE_CONSTANT
7.50241114482

LATTICE_VECTORS
0.703259267733 -4.524416263e-11 5.17938022821e-13 #latvec1
0.351629633827 0.609040391326 5.17938022821e-13 #latvec2
8.88078908139e-12 5.12732596676e-12 12.2735417987 #latvec3

ATOMIC_POSITIONS
Direct

Al #label
0 #magnetism
21 #number of atoms
0  0  0  m  0  0  1
0.333333333332  0.333333333332  0.0476190583008  m  0  0  1
0.666666666668  0.666666666668  0.0952381096443  m  0  0  1
6.44197829242e-16  1  0.142857161387  m  0  0  1
0.333333333332  0.333333333332  0.190476211348  m  0  0  1
0.666666666668  0.666666666668  0.238095255098  m  0  0  1
1  7.87992880142e-18  0.285714299412  m  0  0  1
0.333333333332  0.333333333332  0.333333345268  m  0  0  1
0.666666666668  0.666666666668  0.380952388044  m  0  0  1
1  1.79608684624e-18  0.428571431693  m  0  0  1
0.333333333332  0.333333333332  0.476190476872  m  0  0  1
0.666666666668  0.666666666668  0.523809523128  m  0  0  1
2.62883095847e-20  2.62883144314e-20  0.571428568307  m  0  0  1
0.333333333332  0.333333333332  0.619047611956  m  0  0  1
0.666666666668  0.666666666668  0.666666654732  m  0  0  1
1.15324554073e-19  1.15324558112e-19  0.714285700588  m  0  0  1
0.333333333332  0.333333333332  0.761904744902  m  0  0  1
0.666666666668  0.666666666668  0.809523788652  m  0  0  1
1.55999154944e-19  1.55999163022e-19  0.857142838613  m  0  0  1
0.333333333332  0.333333333332  0.904761890356  m  0  0  1
0.666666666668  0.666666666668  0.952380941699  m  0  0  1
