ATOMIC_SPECIES
Al 26.981539 al.lda.lps

LATTICE_CONSTANT
7.50241114482

LATTICE_VECTORS
0.638898455914 2.44595791969e-09 1.39790057537e-09 #latvec1
0.319449230075 0.553302292037 1.39790057537e-09 #latvec2
2.45357273336e-08 1.41657087808e-08 13.7086042214 #latvec3

ATOMIC_POSITIONS
Direct

Al #label
0 #magnetism
21 #number of atoms
0  0  0  m  0  0  1
0.333333333332  0.333333333332  0.047619063365  m  0  0  1
0.666666666668  0.666666666668  0.0952381144892  m  0  0  1
6.63596433283e-16  1  0.142857167004  m  0  0  1
0.333333333332  0.333333333332  0.190476219034  m  0  0  1
0.666666666668  0.666666666668  0.23809526302  m  0  0  1
1  1  0.285714307344  m  0  0  1
0.333333333332  0.333333333332  0.333333352531  m  0  0  1
0.666666666668  0.666666666668  0.380952394541  m  0  0  1
1  1  0.428571436833  m  0  0  1
0.333333333332  0.333333333332  0.476190479466  m  0  0  1
0.666666666668  0.666666666668  0.523809520534  m  0  0  1
7.77040761938e-17  7.77040795025e-17  0.571428563167  m  0  0  1
0.333333333332  0.333333333332  0.619047605459  m  0  0  1
0.666666666668  0.666666666668  0.666666647469  m  0  0  1
7.44397998123e-17  7.44397998123e-17  0.714285692656  m  0  0  1
0.333333333332  0.333333333332  0.76190473698  m  0  0  1
0.666666666668  0.666666666668  0.809523780966  m  0  0  1
7.79800997468e-17  7.79801063642e-17  0.857142832996  m  0  0  1
0.333333333332  0.333333333332  0.904761885511  m  0  0  1
0.666666666668  0.666666666668  0.952380936635  m  0  0  1
