ATOMIC_SPECIES
Al 26.981539 al.lda.lps

LATTICE_CONSTANT
7.50241114482

LATTICE_VECTORS
0.703259267733 -4.524416263e-11 5.17938022821e-13 #latvec1
0.351629633827 0.609040391326 5.17938022821e-13 #latvec2
8.88078908139e-12 5.12732596676e-12 12.2735417987 #latvec3

ATOMIC_POSITIONS
Direct

Al #label
0 #magnetism
21 #number of atoms
0  0  0  m  0  0  1
0.333333333332  0.333333333332  0.0476190529594  m  0  0  1
0.666666666668  0.666666666668  0.0952381024407  m  0  0  1
5.3325353022e-16  1  0.142857152121  m  0  0  1
0.333333333332  0.333333333332  0.190476200912  m  0  0  1
0.666666666668  0.666666666668  0.238095246598  m  0  0  1
1  7.9375910829e-18  0.285714292563  m  0  0  1
0.333333333332  0.333333333332  0.3333333393  m  0  0  1
0.666666666668  0.666666666668  0.380952384498  m  0  0  1
1  1.80923206046e-18  0.428571430132  m  0  0  1
0.333333333332  0.333333333332  0.476190476531  m  0  0  1
0.666666666668  0.666666666668  0.523809523469  m  0  0  1
1.31430808308e-20  1.31430856776e-20  0.571428569868  m  0  0  1
0.333333333332  0.333333333332  0.619047615502  m  0  0  1
0.666666666668  0.666666666668  0.6666666607  m  0  0  1
5.76622588613e-20  5.76622620924e-20  0.714285707437  m  0  0  1
0.333333333332  0.333333333332  0.761904753402  m  0  0  1
0.666666666668  0.666666666668  0.809523799088  m  0  0  1
7.79957162188e-20  7.79957226812e-20  0.857142847879  m  0  0  1
0.333333333332  0.333333333332  0.904761897559  m  0  0  1
0.666666666668  0.666666666668  0.952380947041  m  0  0  1
