ATOMIC_SPECIES
Al 26.981539 al.lda.lps

LATTICE_CONSTANT
7.50241114482

LATTICE_VECTORS
0.638898455914 2.44595791969e-09 1.39790057537e-09 #latvec1
0.319449230075 0.553302292037 1.39790057537e-09 #latvec2
2.45357273336e-08 1.41657087808e-08 13.7086042214 #latvec3

ATOMIC_POSITIONS
Direct

Al #label
0 #magnetism
21 #number of atoms
0  0  0  m  0  0  1
0.333333333332  0.333333333332  0.04761906477  m  0  0  1
0.666666666668  0.666666666668  0.0952381148005  m  0  0  1
6.26112147428e-16  1  0.142857168468  m  0  0  1
0.333333333332  0.333333333332  0.190476221374  m  0  0  1
0.666666666668  0.666666666668  0.238095265782  m  0  0  1
9.4959298691e-17  1  0.285714308521  m  0  0  1
0.333333333332  0.333333333332  0.33333335381  m  0  0  1
0.666666666668  0.666666666668  0.380952394899  m  0  0  1
3.93663470726e-16  1  0.428571437842  m  0  0  1
0.333333333332  0.333333333332  0.476190479769  m  0  0  1
0.666666666668  0.666666666668  0.523809520231  m  0  0  1
1.03545904942e-16  1.03545926449e-16  0.571428562158  m  0  0  1
0.333333333332  0.333333333332  0.619047605101  m  0  0  1
0.666666666668  0.666666666668  0.66666664619  m  0  0  1
1.04564040199e-16  1.04564073286e-16  0.714285691479  m  0  0  1
0.333333333332  0.333333333332  0.761904734218  m  0  0  1
0.666666666668  0.666666666668  0.809523778626  m  0  0  1
1.15464384775e-16  1.15464378157e-16  0.857142831532  m  0  0  1
0.333333333332  0.333333333332  0.9047618852  m  0  0  1
0.666666666668  0.666666666668  0.95238093523  m  0  0  1
