ATOMIC_SPECIES
Al 26.981539 al.lda.lps

LATTICE_CONSTANT
7.50241114482

LATTICE_VECTORS
0.692979734672 2.97881436237e-10 2.00290105443e-10 #latvec1
0.346489867593 0.600138054385 2.00290105443e-10 #latvec2
3.51522069826e-09 2.0295136164e-09 12.52062635 #latvec3

ATOMIC_POSITIONS
Direct

Al #label
0 #magnetism
21 #number of atoms
0  0  0  m  0  0  1
0.333333333332  0.333333333332  0.0476190595217  m  0  0  1
0.666666666668  0.666666666668  0.0952381112717  m  0  0  1
8.10709577012e-16  1  0.142857163965  m  0  0  1
0.333333333332  0.333333333332  0.190476215328  m  0  0  1
0.666666666668  0.666666666668  0.238095259721  m  0  0  1
1  7.83757957663e-18  0.285714304443  m  0  0  1
0.333333333332  0.333333333332  0.333333350251  m  0  0  1
0.666666666668  0.666666666668  0.380952391771  m  0  0  1
1  1.77835701055e-18  0.428571433799  m  0  0  1
0.333333333332  0.333333333332  0.476190477433  m  0  0  1
0.666666666668  0.666666666668  0.523809522567  m  0  0  1
4.40181610342e-20  4.40181674966e-20  0.571428566201  m  0  0  1
0.333333333332  0.333333333332  0.619047608229  m  0  0  1
0.666666666668  0.666666666668  0.666666649749  m  0  0  1
1.57673821676e-19  1.57673825715e-19  0.714285695557  m  0  0  1
0.333333333332  0.333333333332  0.761904740279  m  0  0  1
0.666666666668  0.666666666668  0.809523784672  m  0  0  1
1.77705081037e-19  1.77705089923e-19  0.857142836035  m  0  0  1
0.333333333332  0.333333333332  0.904761888728  m  0  0  1
0.666666666668  0.666666666668  0.952380940478  m  0  0  1
