ATOMIC_SPECIES
Al 26.981539 al.lda.lps

LATTICE_CONSTANT
7.50241114482

LATTICE_VECTORS
0.638898455914 2.44595791969e-09 1.39790057537e-09 #latvec1
0.319449230075 0.553302292037 1.39790057537e-09 #latvec2
2.45357273336e-08 1.41657087808e-08 13.7086042214 #latvec3

ATOMIC_POSITIONS
Direct

Al #label
0 #magnetism
21 #number of atoms
0  0  0  m  0  0  1
0.333333333332  0.333333333332  0.0476190623262  m  0  0  1
0.666666666668  0.666666666668  0.0952381136196  m  0  0  1
6.84625187147e-16  1  0.142857166183  m  0  0  1
0.333333333332  0.333333333332  0.190476218033  m  0  0  1
0.666666666668  0.666666666668  0.238095262129  m  0  0  1
1.45160835473e-16  1  0.28571430656  m  0  0  1
0.333333333332  0.333333333332  0.333333351915  m  0  0  1
0.666666666668  0.666666666668  0.380952393792  m  0  0  1
3.29473294008e-16  1  0.428571436013  m  0  0  1
0.333333333332  0.333333333332  0.476190478917  m  0  0  1
0.666666666668  0.666666666668  0.523809521083  m  0  0  1
5.67137841608e-17  5.671379905e-17  0.571428563987  m  0  0  1
0.333333333332  0.333333333332  0.619047606208  m  0  0  1
0.666666666668  0.666666666668  0.666666648085  m  0  0  1
5.43625050716e-17  5.43625348501e-17  0.71428569344  m  0  0  1
0.333333333332  0.333333333332  0.761904737871  m  0  0  1
0.666666666668  0.666666666668  0.809523781967  m  0  0  1
5.69513421609e-17  5.69513388522e-17  0.857142833817  m  0  0  1
0.333333333332  0.333333333332  0.90476188638  m  0  0  1
0.666666666668  0.666666666668  0.952380937674  m  0  0  1
