ATOMIC_SPECIES
Al 26.981539 al.lda.lps

LATTICE_CONSTANT
7.50241114482

LATTICE_VECTORS
0.638898455914 2.44595791969e-09 1.39790057537e-09 #latvec1
0.319449230075 0.553302292037 1.39790057537e-09 #latvec2
2.45357273336e-08 1.41657087808e-08 13.7086042214 #latvec3

ATOMIC_POSITIONS
Direct

Al #label
0 #magnetism
21 #number of atoms
0  0  0  m  0  0  1
0.333333333332  0.333333333332  0.0476190632765  m  0  0  1
0.666666666668  0.666666666668  0.0952381140788  m  0  0  1
6.61871477983e-16  1  0.142857167072  m  0  0  1
0.333333333332  0.333333333332  0.190476219332  m  0  0  1
0.666666666668  0.666666666668  0.238095263549  m  0  0  1
1.25639184419e-16  1  0.285714307322  m  0  0  1
0.333333333332  0.333333333332  0.333333352652  m  0  0  1
0.666666666668  0.666666666668  0.380952394223  m  0  0  1
5.33306497007e-16  1  0.428571436724  m  0  0  1
0.333333333332  0.333333333332  0.476190479248  m  0  0  1
0.666666666668  0.666666666668  0.523809520752  m  0  0  1
7.49251794696e-17  7.4925204285e-17  0.571428563276  m  0  0  1
0.333333333332  0.333333333332  0.619047605777  m  0  0  1
0.666666666668  0.666666666668  0.666666647348  m  0  0  1
7.3884156125e-17  7.38841892123e-17  0.714285692678  m  0  0  1
0.333333333332  0.333333333332  0.761904736451  m  0  0  1
0.666666666668  0.666666666668  0.809523780668  m  0  0  1
7.97050558741e-17  7.97050459479e-17  0.857142832928  m  0  0  1
0.333333333332  0.333333333332  0.904761885921  m  0  0  1
0.666666666668  0.666666666668  0.952380936723  m  0  0  1
