ATOMIC_SPECIES
Al 26.981539 al.lda.lps

LATTICE_CONSTANT
7.50241114482

LATTICE_VECTORS
0.638898455914 2.44595791969e-09 1.39790057537e-09 #latvec1
0.319449230075 0.553302292037 1.39790057537e-09 #latvec2
2.45357273336e-08 1.41657087808e-08 13.7086042214 #latvec3

ATOMIC_POSITIONS
Direct

Al #label
0 #magnetism
21 #number of atoms
0  0  0  m  0  0  1
0.333333333332  0.333333333332  0.047619061754  m  0  0  1
0.666666666668  0.666666666668  0.0952381122516  m  0  0  1
7.08597856544e-16  1  0.142857165246  m  0  0  1
0.333333333332  0.333333333332  0.190476217918  m  0  0  1
0.666666666668  0.666666666668  0.238095261776  m  0  0  1
3.91259268621e-16  1  0.28571430562  m  0  0  1
0.333333333332  0.333333333332  0.333333350903  m  0  0  1
0.666666666668  0.666666666668  0.380952393382  m  0  0  1
8.72466487924e-16  1  0.428571436486  m  0  0  1
0.333333333332  0.333333333332  0.476190478813  m  0  0  1
0.666666666668  0.666666666668  0.523809521187  m  0  0  1
6.88320810507e-17  6.88321224097e-17  0.571428563514  m  0  0  1
0.333333333332  0.333333333332  0.619047606618  m  0  0  1
0.666666666668  0.666666666668  0.666666649097  m  0  0  1
3.03086553414e-17  3.03087281333e-17  0.71428569438  m  0  0  1
0.333333333332  0.333333333332  0.761904738224  m  0  0  1
0.666666666668  0.666666666668  0.809523782082  m  0  0  1
3.29786653185e-17  3.29786620098e-17  0.857142834754  m  0  0  1
0.333333333332  0.333333333332  0.904761887748  m  0  0  1
0.666666666668  0.666666666668  0.952380938246  m  0  0  1
