ATOMIC_SPECIES
Al 26.981539 al.lda.lps

LATTICE_CONSTANT
7.50241114482

LATTICE_VECTORS
0.703259267733 -4.524416263e-11 5.17938022821e-13 #latvec1
0.351629633827 0.609040391326 5.17938022821e-13 #latvec2
8.88078908139e-12 5.12732596676e-12 12.2735417987 #latvec3

ATOMIC_POSITIONS
Direct

Al #label
0 #magnetism
21 #number of atoms
0  0  0  m  0  0  1
0.333333333332  0.333333333332  0.0485713365386  m  0  0  1
0.666666666668  0.666666666668  0.0965222225779  m  0  0  1
1  1  0.14450899461  m  0  0  1
0.333333333332  0.333333333332  0.192337056282  m  0  0  1
0.666666666668  0.666666666668  0.239611164285  m  0  0  1
1  1  0.286935500135  m  0  0  1
0.333333333332  0.333333333332  0.334397432846  m  0  0  1
0.666666666668  0.666666666668  0.381584561877  m  0  0  1
1  1  0.428849782576  m  0  0  1
0.333333333332  0.333333333332  0.476251110546  m  0  0  1
0.666666666668  0.666666666668  0.523748889454  m  0  0  1
2.3433777825e-15  2.34337778251e-15  0.571150217424  m  0  0  1
0.333333333332  0.333333333332  0.618415438123  m  0  0  1
0.666666666668  0.666666666668  0.665602567154  m  0  0  1
1.02810330851e-14  1.02810330851e-14  0.713064499865  m  0  0  1
0.333333333332  0.333333333332  0.760388835715  m  0  0  1
0.666666666668  0.666666666668  0.807662943718  m  0  0  1
1.39064379091e-14  1.39064379091e-14  0.85549100539  m  0  0  1
0.333333333332  0.333333333332  0.903477777422  m  0  0  1
0.666666666668  0.666666666668  0.951428663461  m  0  0  1
