ATOMIC_SPECIES
Al 26.981539 al.lda.lps

LATTICE_CONSTANT
7.50241114482

LATTICE_VECTORS
0.638898455914 2.44595791969e-09 1.39790057537e-09 #latvec1
0.319449230075 0.553302292037 1.39790057537e-09 #latvec2
2.45357273336e-08 1.41657087808e-08 13.7086042214 #latvec3

ATOMIC_POSITIONS
Direct

Al #label
0 #magnetism
21 #number of atoms
0  0  0  m  0  0  1
0.333333333332  0.333333333332  0.0476190619071  m  0  0  1
0.666666666668  0.666666666668  0.0952381124395  m  0  0  1
5.92840501767e-16  1  0.142857165431  m  0  0  1
0.333333333332  0.333333333332  0.190476218186  m  0  0  1
0.666666666668  0.666666666668  0.238095262073  m  0  0  1
4.9275719679e-16  1  0.285714305992  m  0  0  1
0.333333333332  0.333333333332  0.333333351229  m  0  0  1
0.666666666668  0.666666666668  0.380952393408  m  0  0  1
9.87874118183e-16  1  0.428571436315  m  0  0  1
0.333333333332  0.333333333332  0.476190478718  m  0  0  1
0.666666666668  0.666666666668  0.523809521282  m  0  0  1
6.44467482917e-17  6.44467979225e-17  0.571428563685  m  0  0  1
0.333333333332  0.333333333332  0.619047606592  m  0  0  1
0.666666666668  0.666666666668  0.666666648771  m  0  0  1
3.98330279813e-17  3.98331073906e-17  0.714285694008  m  0  0  1
0.333333333332  0.333333333332  0.761904737927  m  0  0  1
0.666666666668  0.666666666668  0.809523781814  m  0  0  1
3.77137151513e-17  3.77137118426e-17  0.857142834569  m  0  0  1
0.333333333332  0.333333333332  0.90476188756  m  0  0  1
0.666666666668  0.666666666668  0.952380938093  m  0  0  1
