ATOMIC_SPECIES
Al 26.981539 al.lda.lps

LATTICE_CONSTANT
7.50241114482

LATTICE_VECTORS
0.638898455914 2.44595791969e-09 1.39790057537e-09 #latvec1
0.319449230075 0.553302292037 1.39790057537e-09 #latvec2
2.45357273336e-08 1.41657087808e-08 13.7086042214 #latvec3

ATOMIC_POSITIONS
Direct

Al #label
0 #magnetism
21 #number of atoms
0  0  0  m  0  0  1
0.333333333332  0.333333333332  0.0476190622629  m  0  0  1
0.666666666668  0.666666666668  0.0952381128765  m  0  0  1
6.92856785677e-16  1  0.142857165861  m  0  0  1
0.333333333332  0.333333333332  0.190476218807  m  0  0  1
0.666666666668  0.666666666668  0.238095262762  m  0  0  1
3.59596708042e-16  1  0.285714306857  m  0  0  1
0.333333333332  0.333333333332  0.333333351986  m  0  0  1
0.666666666668  0.666666666668  0.38095239347  m  0  0  1
7.76022643225e-16  1  0.428571435917  m  0  0  1
0.333333333332  0.333333333332  0.476190478497  m  0  0  1
0.666666666668  0.666666666668  0.523809521503  m  0  0  1
5.42536249419e-17  5.42536646466e-17  0.571428564083  m  0  0  1
0.333333333332  0.333333333332  0.61904760653  m  0  0  1
0.666666666668  0.666666666668  0.666666648014  m  0  0  1
6.19712266745e-17  6.19712862315e-17  0.714285693143  m  0  0  1
0.333333333332  0.333333333332  0.761904737238  m  0  0  1
0.666666666668  0.666666666668  0.809523781193  m  0  0  1
4.87197370131e-17  4.87197337044e-17  0.857142834139  m  0  0  1
0.333333333332  0.333333333332  0.904761887124  m  0  0  1
0.666666666668  0.666666666668  0.952380937737  m  0  0  1
