ATOMIC_SPECIES
Al 26.981539 al.lda.lps

LATTICE_CONSTANT
7.50241114482

LATTICE_VECTORS
0.638898455914 2.44595791969e-09 1.39790057537e-09 #latvec1
0.319449230075 0.553302292037 1.39790057537e-09 #latvec2
2.45357273336e-08 1.41657087808e-08 13.7086042214 #latvec3

ATOMIC_POSITIONS
Direct

Al #label
0 #magnetism
21 #number of atoms
0  0  0  m  0  0  1
0.333333333332  0.333333333332  0.0476190613387  m  0  0  1
0.666666666668  0.666666666668  0.0952381127928  m  0  0  1
7.04617146627e-16  1  0.142857165402  m  0  0  1
0.333333333332  0.333333333332  0.19047621708  m  0  0  1
0.666666666668  0.666666666668  0.238095261281  m  0  0  1
0  1  0.285714305814  m  0  0  1
0.333333333332  0.333333333332  0.333333351329  m  0  0  1
0.666666666668  0.666666666668  0.380952393081  m  0  0  1
0  1  0.428571435233  m  0  0  1
0.333333333332  0.333333333332  0.476190478394  m  0  0  1
0.666666666668  0.666666666668  0.523809521606  m  0  0  1
3.67584042619e-17  3.6758414188e-17  0.571428564767  m  0  0  1
0.333333333332  0.333333333332  0.619047606919  m  0  0  1
0.666666666668  0.666666666668  0.666666648671  m  0  0  1
3.52751238398e-17  3.52751304572e-17  0.714285694186  m  0  0  1
0.333333333332  0.333333333332  0.761904738719  m  0  0  1
0.666666666668  0.666666666668  0.80952378292  m  0  0  1
3.69593826809e-17  3.69593926071e-17  0.857142834598  m  0  0  1
0.333333333332  0.333333333332  0.904761887207  m  0  0  1
0.666666666668  0.666666666668  0.952380938661  m  0  0  1
