ATOMIC_SPECIES
Al 26.981539 al.lda.lps

LATTICE_CONSTANT
7.50241114482

LATTICE_VECTORS
0.638898455914 2.44595791969e-09 1.39790057537e-09 #latvec1
0.319449230075 0.553302292037 1.39790057537e-09 #latvec2
2.45357273336e-08 1.41657087808e-08 13.7086042214 #latvec3

ATOMIC_POSITIONS
Direct

Al #label
0 #magnetism
21 #number of atoms
0  0  0  m  0  0  1
0.333333333332  0.333333333332  0.0476190642269  m  0  0  1
0.666666666668  0.666666666668  0.095238114538  m  0  0  1
6.39117769646e-16  1  0.14285716796  m  0  0  1
0.333333333332  0.333333333332  0.190476220632  m  0  0  1
0.666666666668  0.666666666668  0.23809526497  m  0  0  1
1.06117533366e-16  1  0.285714308085  m  0  0  1
0.333333333332  0.333333333332  0.333333353389  m  0  0  1
0.666666666668  0.666666666668  0.380952394653  m  0  0  1
5.15095095081e-16  1  0.428571437435  m  0  0  1
0.333333333332  0.333333333332  0.476190479579  m  0  0  1
0.666666666668  0.666666666668  0.523809520421  m  0  0  1
9.31365797414e-17  9.31366095199e-17  0.571428562565  m  0  0  1
0.333333333332  0.333333333332  0.619047605347  m  0  0  1
0.666666666668  0.666666666668  0.666666646611  m  0  0  1
9.34058071785e-17  9.34058435744e-17  0.714285691915  m  0  0  1
0.333333333332  0.333333333332  0.76190473503  m  0  0  1
0.666666666668  0.666666666668  0.809523779368  m  0  0  1
1.02458766279e-16  1.02458756352e-16  0.85714283204  m  0  0  1
0.333333333332  0.333333333332  0.904761885462  m  0  0  1
0.666666666668  0.666666666668  0.952380935773  m  0  0  1
