%BLOCK LATTICE_CART
   2.828739581100000   0.000000000000000   0.000000000000000
   1.414369790550000   2.449760337923151   0.000000000000000
   0.000000000000003   0.000000000000002  46.339417190364202
%END BLOCK LATTICE_CART
%BLOCK POSITIONS_FRAC
    Al   0.000000000000000   0.000000000000000   0.999853518570932
    Al   0.333333333300000   0.333333333300000   0.049737524598280
    Al   0.666666666700000   0.666666666700000   0.099618303707605
    Al   0.000000000000000   0.000000000000000   0.149489863279518
    Al   0.333333333300000   0.333333333300000   0.199217441497982
    Al   0.800000000000000   0.800000000000000   0.250788644187164
    Al   0.133333333300000   0.133333333300000   0.300509913734671
    Al   0.466666666700000   0.466666666700000   0.350362743624625
    Al   0.800000000000000   0.800000000000000   0.400187787923109
    Al   0.133333333300000   0.133333333300000   0.450000347942577
    Al   0.800000000000000   0.800000000000000   0.499812954674972
    Al   0.466666666700000   0.466666666700000   0.549637946337845
    Al   0.133333333300000   0.133333333300000   0.599490521339763
    Al   0.800000000000000   0.800000000000000   0.649211430867304
    Al   0.333333333300000   0.333333333300000   0.700782397862913
    Al   1.000000000000000   1.000000000000000   0.750509764276800
    Al   0.666666666700000   0.666666666700000   0.800381269662296
    Al   0.333333333300000   0.333333333300000   0.850261949389294
    Al   0.000000000000000   0.000000000000000   0.900145769114584
    Al   0.666666666700000   0.666666666700000   0.949999587494737
%END BLOCK POSITIONS_FRAC
%BLOCK SPECIES_POT
    Al al.lda.recpot                                                                          
%END BLOCK SPECIES_POT
%BLOCK ION_OPTIMIZATION
           0           0           1
           0           0           1
           0           0           1
           0           0           1
           0           0           1
           0           0           1
           0           0           1
           0           0           1
           0           0           1
           0           0           1
           0           0           1
           0           0           1
           0           0           1
           0           0           1
           0           0           1
           0           0           1
           0           0           1
           0           0           1
           0           0           1
           0           0           1
%END BLOCK ION_OPTIMIZATION
