%BLOCK LATTICE_CART
  -1.680145476306981   1.679174722777949   1.679186719989504
   1.679177100179434  -1.680137071544510   1.679178304028800
   1.679180906213357   1.679170112842500  -1.680140800103529
%END BLOCK LATTICE_CART
%BLOCK POSITIONS_FRAC
    Li   0.000000000000000   0.000000000000000   0.000000000000000
%END BLOCK POSITIONS_FRAC
%BLOCK SPECIES_POT
    Li li.lda.recpot                                                                          
%END BLOCK SPECIES_POT
