%BLOCK LATTICE_CART
3.837884485640    0.000000000000    0.000000000000    
0.000000000000    3.837884485640    0.000000000000    
0.000000000000    0.000000000000    23.06725023425686    
%END BLOCK LATTICE_CART
%BLOCK POSITIONS_FRAC
Si    0.000000000000    0.000000000000 0.0
Si    0.500000000000    0.000000000000 0.058823529411764705
Si    0.5 0.5 0.11764705882352941
Si    0.0 0.5 0.17647058823529413
Si    0.0 0.0 0.23529411764705882
Si    0.5 0.0 0.29411764705882354
Si    0.5 0.5 0.35294117647058826
Si    0.0 0.5 0.4117647058823529
Si    0.0 0.0 0.47058823529411764
Si    0.5 0.0 0.5294117647058824
%END BLOCK POSITIONS_FRAC
%BLOCK SPECIES_POT
Si si.lda.recpot
%END BLOCK SPECIES_POT
