INPUT_PARAMETERS
#Parameters (1.General)
suffix			blpstest
calculation     scf
ntype			1
nbands			45
symmetry		1
pseudo_dir      /home/mhchen_pkuhpc/mhchen_coe/lustre2/1_sunliang/2_software/PROFESS3.0/BLPSLibrary-master/GGA/real
# pseudo_dir      /home/xianyuer/data/1_sunliang/2_software/PP_ORB/BLPSLibrary-master/GGA/real
pseudo_rcut     16

#Parameters (2.Iteration)
ecutwfc			75
scf_nmax			100
dft_functional  XC_GGA_X_PBE+XC_GGA_C_PBE


#Parameters (3.Basis)
basis_type		pw

#Parameters (4.Smearing)
smearing_method		gauss
smearing_sigma		0.0074

#Parameters (5.Mixing)
#mixing_type		pulay
#mixing_beta		0.7
