%BLOCK LATTICE_CART
5.548695000000    0.000000000000    0.000000000000    
0.000000000000    5.548695000000    0.000000000000    
0.000000000000    0.000000000000    5.087359000000    
%END BLOCK LATTICE_CART
%BLOCK POSITIONS_FRAC
Mg    0.000000000000    0.000000000000    0.000000000000
Mg    0.500000000000    0.500000000000    0.500000000000
Al    0.335846000000    0.335846000000    0.000000000000
Al    0.664154000000    0.664154000000    0.000000000000
Al    0.835846000000    0.164154000000    0.500000000000
Al    0.164154000000    0.835846000000    0.500000000000
%END BLOCK POSITIONS_FRAC
%BLOCK SPECIES_POT
Mg mg.gga.recpot
Al al.gga.recpot
%END BLOCK SPECIES_POT
