%BLOCK LATTICE_CART
   2.805799707700000   0.000000000000000   0.000000000000000
   1.402899853850000   2.429893824799152   0.000000000000000
   0.000000000000003   0.000000000000002  50.475594002620497
%END BLOCK LATTICE_CART
%BLOCK POSITIONS_FRAC
    Al   0.000000000000000   0.000000000000000   0.000133608623730
    Al   0.333333333300000   0.333333333300000   0.045482263524908
    Al   0.666666666700000   0.666666666700000   0.090794789304869
    Al   0.000000000000000   0.000000000000000   0.136168477695496
    Al   0.333333333300000   0.333333333300000   0.181737603922140
    Al   0.000000000000000   0.000000000000000   0.227265154620723
    Al   0.666666666700000   0.666666666700000   0.272811707754280
    Al   1.000000000000000   1.000000000000000   0.318340205244169
    Al   0.333333333300000   0.333333333300000   0.363663023120906
    Al   0.666666666700000   0.666666666700000   0.408987083437991
    Al   1.000000000000000   1.000000000000000   0.454545482384288
    Al   0.666666666700000   0.666666666700000   0.500103884455493
    Al   0.333333333300000   0.333333333300000   0.545427943670331
    Al   0.000000000000000   0.000000000000000   0.590750757878333
    Al   0.666666666700000   0.666666666700000   0.636279248172041
    Al   1.000000000000000   1.000000000000000   0.681825782634316
    Al   0.333333333300000   0.333333333300000   0.727353313773127
    Al   1.000000000000000   1.000000000000000   0.772922408152601
    Al   0.666666666700000   0.666666666700000   0.818296066630107
    Al   0.333333333300000   0.333333333300000   0.863608562942816
    Al   0.000000000000000   0.000000000000000   0.908957198568206
    Al   0.666666666700000   0.666666666700000   0.954545398282618
%END BLOCK POSITIONS_FRAC
%BLOCK SPECIES_POT
    Al al_HC.lda.recpot                                                                       
%END BLOCK SPECIES_POT
%BLOCK ION_OPTIMIZATION
           0           0           1
           0           0           1
           0           0           1
           0           0           1
           0           0           1
           0           0           1
           0           0           1
           0           0           1
           0           0           1
           0           0           1
           0           0           1
           0           0           1
           0           0           1
           0           0           1
           0           0           1
           0           0           1
           0           0           1
           0           0           1
           0           0           1
           0           0           1
           0           0           1
           0           0           1
%END BLOCK ION_OPTIMIZATION
