%BLOCK LATTICE_CART
   2.833725690800000   0.000000000000000   0.000000000000000
   1.416862845400000   2.454078435589407   0.000000000000000
   0.000000000000003   0.000000000000002  50.906848532676491
%END BLOCK LATTICE_CART
%BLOCK POSITIONS_FRAC
    Al   0.000000000000000   0.000000000000000   0.999968806176373
    Al   0.333333333300000   0.333333333300000   0.045441344791232
    Al   0.666666666700000   0.666666666700000   0.090924036123728
    Al   0.000000000000000   0.000000000000000   0.136409801857243
    Al   0.333333333300000   0.333333333300000   0.181849142053575
    Al   0.000000000000000   0.000000000000000   0.227242159823339
    Al   0.333333333300000   0.333333333300000   0.272681454288071
    Al   0.666666666700000   0.666666666700000   0.318167140120859
    Al   1.000000000000000   1.000000000000000   0.363649730112772
    Al   0.333333333300000   0.333333333300000   0.409122155653617
    Al   0.666666666700000   0.666666666700000   0.454545473950727
    Al   0.333333333300000   0.333333333300000   0.499968799486796
    Al   0.000000000000000   0.000000000000000   0.545441237117913
    Al   0.666666666700000   0.666666666700000   0.590923838297080
    Al   0.333333333300000   0.333333333300000   0.636409526840083
    Al   0.000000000000000   0.000000000000000   0.681848812578613
    Al   0.333333333300000   0.333333333300000   0.727241803256263
    Al   0.000000000000000   0.000000000000000   0.772681099986811
    Al   0.666666666700000   0.666666666700000   0.818166817217868
    Al   0.333333333300000   0.333333333300000   0.863649461760668
    Al   0.000000000000000   0.000000000000000   0.909121965980718
    Al   0.666666666700000   0.666666666700000   0.954545378541184
%END BLOCK POSITIONS_FRAC
%BLOCK SPECIES_POT
    Al al.lda.recpot                                                                          
%END BLOCK SPECIES_POT
%BLOCK ION_OPTIMIZATION
           0           0           1
           0           0           1
           0           0           1
           0           0           1
           0           0           1
           0           0           1
           0           0           1
           0           0           1
           0           0           1
           0           0           1
           0           0           1
           0           0           1
           0           0           1
           0           0           1
           0           0           1
           0           0           1
           0           0           1
           0           0           1
           0           0           1
           0           0           1
           0           0           1
           0           0           1
%END BLOCK ION_OPTIMIZATION
