ATOMIC_SPECIES
Al 13 al.lda.lps blps

LATTICE_CONSTANT
7.502411861820762  // add lattice constant

LATTICE_VECTORS
0.707106781187    0.000000000000    0.000000000000    
0.000000000000    1.000000000000    0.000000000000    
0.000000000000    0.000000000000    5.656854249492    

ATOMIC_POSITIONS
Direct

Al
0.0
9
    0.000000000000    0.000000000000    0.000000000000 1 1 1
    0.500000000000    0.500000000000    0.062500000000 1 1 1
    0.000000000000    0.000000000000    0.125000000000 1 1 1
    0.500000000000    0.500000000000    0.187500000000 1 1 1
    0.000000000000    0.000000000000    0.250000000000 1 1 1
    0.500000000000    0.500000000000    0.312500000000 1 1 1
    0.000000000000    0.000000000000    0.375000000000 1 1 1
    0.500000000000    0.500000000000    0.437500000000 1 1 1
    0.000000000000    0.000000000000    0.500000000000 1 1 1
