ATOMIC_SPECIES
Al 26.981539 al.lda.lps

LATTICE_CONSTANT
7.50241114482312  // add lattice constant

LATTICE_VECTORS
0.707106781187    0.000000000000    0.000000000000    
0.353553390593    0.612372435696    0.000000000000    
0.000000000000    0.000000000000    11.547005383792515

ATOMIC_POSITIONS
Direct

Al
0.0
20
    1.3388421604E-30  1.3388421604E-30  1.0451724940E-04 1 1 1
    3.3333333330E-01  3.3333333330E-01  4.9794837707E-02 1 1 1
    6.6666666670E-01  6.6666666670E-01  9.9781530067E-02 1 1 1
    1.2745119791E-30  1.2745119791E-30  1.4955600628E-01 1 1 1
    3.3333333330E-01  3.3333333330E-01  1.9943468770E-01 1 1 1
    8.6666666670E-01  8.6666666670E-01  2.5067023004E-01 1 1 1
    2.0000000000E-01  2.0000000000E-01  3.0044830572E-01 1 1 1
    5.3333333330E-01  5.3333333330E-01  3.5030858608E-01 1 1 1
    8.6666666670E-01  8.6666666670E-01  3.9999410294E-01 1 1 1
    2.0000000000E-01  2.0000000000E-01  4.5000000000E-01 1 1 1
    8.6666666670E-01  8.6666666670E-01  5.0000589706E-01 1 1 1
    5.3333333330E-01  5.3333333330E-01  5.4969141392E-01 1 1 1
    2.0000000000E-01  2.0000000000E-01  5.9955169428E-01 1 1 1
    8.6666666670E-01  8.6666666670E-01  6.4932976996E-01 1 1 1
    3.3333333330E-01  3.3333333330E-01  7.0056531230E-01 1 1 1
    1.2745119791E-30  1.2745119791E-30  7.5044399372E-01 1 1 1
    6.6666666670E-01  6.6666666670E-01  8.0021846993E-01 1 1 1
    3.3333333330E-01  3.3333333330E-01  8.5020516229E-01 1 1 1
    1.3388421604E-30  1.3388421604E-30  8.9989548275E-01 1 1 1
    6.6666666670E-01  6.6666666670E-01  9.5000000000E-01 1 1 1
