Transformation
0.529176965773
32.125341805842  0.000000000000  0.000000000000
0.000000000000  34.015067794421  0.000000000000
0.000000000000  0.000000000000  203.420355284397
C  
1000  
Direct
0.630061000000  0.520666000000  0.008001000000  
0.642828000000  0.470759000000  0.018914000000  
0.511282000000  0.643144000000  0.018936000000  
0.629891000000  0.521100000000  0.030440000000  
0.633167000000  0.512205000000  0.045281000000  
0.644499000000  0.445577000000  0.051835000000  
0.644495000000  0.446172000000  0.067391000000  
0.632538000000  0.514012000000  0.073882000000  
0.628926000000  0.523505000000  0.088720000000  
0.642319000000  0.474480000000  0.099896000000  
0.510037000000  0.643696000000  0.099902000000  
0.629020000000  0.523276000000  0.110962000000  
0.632670000000  0.513637000000  0.125914000000  
0.644499000000  0.445616000000  0.132483000000  
0.644498000000  0.445762000000  0.147951000000  
0.632834000000  0.513168000000  0.154453000000  
0.629544000000  0.521974000000  0.169440000000  
0.642731000000  0.471509000000  0.180895000000  
0.511223000000  0.643170000000  0.180867000000  
0.629934000000  0.520990000000  0.191922000000  
0.557986000000  0.615454000000  0.008010000000  
0.601004000000  0.572399000000  0.012893000000  
0.600820000000  0.572642000000  0.025840000000  
0.557243000000  0.616019000000  0.030426000000  
0.548185000000  0.622532000000  0.045358000000  
0.599384000000  0.574509000000  0.052504000000  
0.599136000000  0.574828000000  0.066734000000  
0.546598000000  0.623607000000  0.073909000000  
0.555123000000  0.617603000000  0.088807000000  
0.598760000000  0.575308000000  0.093327000000  
0.599093000000  0.574883000000  0.106441000000  
0.555630000000  0.617227000000  0.111097000000  
0.547203000000  0.623199000000  0.126017000000  
0.599024000000  0.574972000000  0.133157000000  
0.599267000000  0.574660000000  0.147270000000  
0.547728000000  0.622844000000  0.154485000000  
0.556734000000  0.616402000000  0.169532000000  
0.599916000000  0.573822000000  0.174043000000  
0.600254000000  0.573382000000  0.187046000000  
0.557801000000  0.615595000000  0.191912000000  
0.402467000000  0.664077000000  0.008001000000  
0.456668000000  0.660122000000  0.018914000000  
0.242427000000  0.595235000000  0.018936000000  
0.401977000000  0.664057000000  0.030440000000  
0.411947000000  0.664252000000  0.045281000000  
0.482543000000  0.653841000000  0.051835000000  
0.481943000000  0.654021000000  0.067391000000  
0.409933000000  0.664245000000  0.073882000000  
0.399257000000  0.663934000000  0.088720000000  
0.452764000000  0.660814000000  0.099896000000  
0.241486000000  0.594287000000  0.099902000000  
0.399517000000  0.663947000000  0.110962000000  
0.410351000000  0.664248000000  0.125914000000  
0.482503000000  0.653853000000  0.132483000000  
0.482356000000  0.653897000000  0.147951000000  
0.410874000000  0.664250000000  0.154453000000  
0.400990000000  0.664016000000  0.169440000000  
0.455883000000  0.660267000000  0.180895000000  
0.242382000000  0.595190000000  0.180867000000  
0.402102000000  0.664062000000  0.191922000000  
0.284743000000  0.628628000000  0.008010000000  
0.341393000000  0.653963000000  0.012893000000  
0.341091000000  0.653873000000  0.025840000000  
0.283944000000  0.628135000000  0.030426000000  
0.274586000000  0.622012000000  0.045358000000  
0.338767000000  0.653160000000  0.052504000000  
0.338369000000  0.653036000000  0.066734000000  
0.273013000000  0.620918000000  0.073909000000  
0.281694000000  0.626721000000  0.088807000000  
0.337769000000  0.652847000000  0.093327000000  
0.338301000000  0.653014000000  0.106441000000  
0.282229000000  0.627060000000  0.111097000000  
0.273611000000  0.621337000000  0.126017000000  
0.338190000000  0.652979000000  0.133157000000  
0.338579000000  0.653102000000  0.147270000000  
0.274132000000  0.621698000000  0.154485000000  
0.283401000000  0.627797000000  0.169532000000  
0.339623000000  0.653426000000  0.174043000000  
0.340171000000  0.653594000000  0.187046000000  
0.284543000000  0.628505000000  0.191912000000  
0.187722000000  0.503963000000  0.008001000000  
0.208453000000  0.551426000000  0.018914000000  
0.207591000000  0.338938000000  0.018936000000  
0.187589000000  0.503517000000  0.030440000000  
0.190475000000  0.512532000000  0.045281000000  
0.222774000000  0.572726000000  0.051835000000  
0.222407000000  0.572243000000  0.067391000000  
0.189859000000  0.510721000000  0.073882000000  
0.186873000000  0.501036000000  0.088720000000  
0.206550000000  0.548133000000  0.099896000000  
0.208255000000  0.337800000000  0.099902000000  
0.186940000000  0.501273000000  0.110962000000  
0.189986000000  0.511098000000  0.125914000000  
0.222750000000  0.572694000000  0.132483000000  
0.222660000000  0.572576000000  0.147951000000  
0.190145000000  0.511568000000  0.154453000000  
0.187326000000  0.502618000000  0.169440000000  
0.208065000000  0.550766000000  0.180895000000  
0.207622000000  0.338884000000  0.180867000000  
0.187623000000  0.503631000000  0.191922000000  
0.187039000000  0.387267000000  0.008010000000  
0.179033000000  0.445980000000  0.012893000000  
0.179031000000  0.445681000000  0.025840000000  
0.187290000000  0.386397000000  0.030426000000  
0.190564000000  0.376099000000  0.045358000000  
0.179030000000  0.443373000000  0.052504000000  
0.179033000000  0.442977000000  0.066734000000  
0.191179000000  0.374349000000  0.073909000000  
0.188018000000  0.383939000000  0.088807000000  
0.179038000000  0.442380000000  0.093327000000  
0.179033000000  0.442909000000  0.106441000000  
0.187842000000  0.384524000000  0.111097000000  
0.190942000000  0.375015000000  0.126017000000  
0.179034000000  0.442799000000  0.133157000000  
0.179031000000  0.443186000000  0.147270000000  
0.190739000000  0.375594000000  0.154485000000  
0.187462000000  0.385805000000  0.169532000000  
0.179027000000  0.444224000000  0.174043000000  
0.179028000000  0.444768000000  0.187046000000  
0.187102000000  0.387049000000  0.191912000000  
0.282596000000  0.261597000000  0.008001000000  
0.241208000000  0.294885000000  0.018914000000  
0.454916000000  0.228448000000  0.018936000000  
0.283005000000  0.261340000000  0.030440000000  
0.274818000000  0.266717000000  0.045281000000  
0.224184000000  0.314330000000  0.051835000000  
0.224557000000  0.313851000000  0.067391000000  
0.276451000000  0.265605000000  0.073882000000  
0.285282000000  0.259930000000  0.088720000000  
0.243935000000  0.292158000000  0.099896000000  
0.456267000000  0.228693000000  0.099902000000  
0.285064000000  0.260064000000  0.110962000000  
0.276111000000  0.265835000000  0.125914000000  
0.224208000000  0.314299000000  0.132483000000  
0.224300000000  0.314181000000  0.147951000000  
0.275687000000  0.266123000000  0.154453000000  
0.283829000000  0.260826000000  0.169440000000  
0.241753000000  0.294332000000  0.180895000000  
0.454980000000  0.228459000000  0.180867000000  
0.282901000000  0.261405000000  0.191922000000  
0.399899000000  0.224923000000  0.008010000000  
0.338301000000  0.235875000000  0.012893000000  
0.338601000000  0.235780000000  0.025840000000  
0.400852000000  0.224879000000  0.030426000000  
0.412233000000  0.224637000000  0.045358000000  
0.340925000000  0.235066000000  0.052504000000  
0.341324000000  0.234946000000  0.066734000000  
0.414187000000  0.224649000000  0.073909000000  
0.403553000000  0.224774000000  0.088807000000  
0.341927000000  0.234766000000  0.093327000000  
0.341393000000  0.234926000000  0.106441000000  
0.402909000000  0.224796000000  0.111097000000  
0.413442000000  0.224643000000  0.126017000000  
0.341504000000  0.234892000000  0.133157000000  
0.341113000000  0.235010000000  0.147270000000  
0.412797000000  0.224639000000  0.154485000000  
0.401501000000  0.224851000000  0.169532000000  
0.340066000000  0.235327000000  0.174043000000  
0.339519000000  0.235495000000  0.187046000000  
0.400137000000  0.224911000000  0.191912000000  
0.555977000000  0.271920000000  0.008001000000  
0.509667000000  0.245030000000  0.018914000000  
0.642608000000  0.416457000000  0.018936000000  
0.556362000000  0.272207000000  0.030440000000  
0.548417000000  0.266516000000  0.045281000000  
0.484824000000  0.235748000000  0.051835000000  
0.485422000000  0.235935000000  0.067391000000  
0.550042000000  0.267639000000  0.073882000000  
0.558485000000  0.273817000000  0.088720000000  
0.513255000000  0.246637000000  0.099896000000  
0.642779000000  0.417747000000  0.099902000000  
0.558284000000  0.273662000000  0.110962000000  
0.549705000000  0.267404000000  0.125914000000  
0.484864000000  0.235760000000  0.132483000000  
0.485010000000  0.235806000000  0.147951000000  
0.549284000000  0.267112000000  0.154453000000  
0.557135000000  0.272789000000  0.169440000000  
0.510391000000  0.245349000000  0.180895000000  
0.642616000000  0.416519000000  0.180867000000  
0.556264000000  0.272134000000  0.191922000000  
0.629157000000  0.365950000000  0.008010000000  
0.599093000000  0.314006000000  0.012893000000  
0.599281000000  0.314247000000  0.025840000000  
0.629495000000  0.366793000000  0.030426000000  
0.633255000000  0.376941000000  0.045358000000  
0.600718000000  0.316113000000  0.052504000000  
0.600962000000  0.316435000000  0.066734000000  
0.633848000000  0.378699000000  0.073909000000  
0.630436000000  0.369186000000  0.088807000000  
0.601330000000  0.316921000000  0.093327000000  
0.601004000000  0.316490000000  0.106441000000  
0.630214000000  0.368615000000  0.111097000000  
0.633624000000  0.378029000000  0.126017000000  
0.601072000000  0.316580000000  0.133157000000  
0.600833000000  0.316265000000  0.147270000000  
0.633428000000  0.377448000000  0.154485000000  
0.629724000000  0.367368000000  0.169532000000  
0.600190000000  0.315423000000  0.174043000000  
0.599852000000  0.314983000000  0.187046000000  
0.629241000000  0.366161000000  0.191912000000  
0.630061000000  0.520666000000  0.208001000000  
0.642828000000  0.470759000000  0.218914000000  
0.511282000000  0.643144000000  0.218936000000  
0.629891000000  0.521100000000  0.230440000000  
0.633167000000  0.512205000000  0.245281000000  
0.644499000000  0.445577000000  0.251835000000  
0.644495000000  0.446172000000  0.267391000000  
0.632538000000  0.514012000000  0.273882000000  
0.628926000000  0.523505000000  0.288720000000  
0.642319000000  0.474480000000  0.299896000000  
0.510037000000  0.643696000000  0.299902000000  
0.629020000000  0.523276000000  0.310962000000  
0.632670000000  0.513637000000  0.325914000000  
0.644499000000  0.445616000000  0.332483000000  
0.644498000000  0.445762000000  0.347951000000  
0.632834000000  0.513168000000  0.354453000000  
0.629544000000  0.521974000000  0.369440000000  
0.642731000000  0.471509000000  0.380895000000  
0.511223000000  0.643170000000  0.380867000000  
0.629934000000  0.520990000000  0.391922000000  
0.557986000000  0.615454000000  0.208010000000  
0.601004000000  0.572399000000  0.212893000000  
0.600820000000  0.572642000000  0.225840000000  
0.557243000000  0.616019000000  0.230426000000  
0.548185000000  0.622532000000  0.245358000000  
0.599384000000  0.574509000000  0.252504000000  
0.599136000000  0.574828000000  0.266734000000  
0.546598000000  0.623607000000  0.273909000000  
0.555123000000  0.617603000000  0.288807000000  
0.598760000000  0.575308000000  0.293327000000  
0.599093000000  0.574883000000  0.306441000000  
0.555630000000  0.617227000000  0.311097000000  
0.547203000000  0.623199000000  0.326017000000  
0.599024000000  0.574972000000  0.333157000000  
0.599267000000  0.574660000000  0.347270000000  
0.547728000000  0.622844000000  0.354485000000  
0.556734000000  0.616402000000  0.369532000000  
0.599916000000  0.573822000000  0.374043000000  
0.600254000000  0.573382000000  0.387046000000  
0.557801000000  0.615595000000  0.391912000000  
0.402467000000  0.664077000000  0.208001000000  
0.456668000000  0.660122000000  0.218914000000  
0.242427000000  0.595235000000  0.218936000000  
0.401977000000  0.664057000000  0.230440000000  
0.411947000000  0.664252000000  0.245281000000  
0.482543000000  0.653841000000  0.251835000000  
0.481943000000  0.654021000000  0.267391000000  
0.409933000000  0.664245000000  0.273882000000  
0.399257000000  0.663934000000  0.288720000000  
0.452764000000  0.660814000000  0.299896000000  
0.241486000000  0.594287000000  0.299902000000  
0.399517000000  0.663947000000  0.310962000000  
0.410351000000  0.664248000000  0.325914000000  
0.482503000000  0.653853000000  0.332483000000  
0.482356000000  0.653897000000  0.347951000000  
0.410874000000  0.664250000000  0.354453000000  
0.400990000000  0.664016000000  0.369440000000  
0.455883000000  0.660267000000  0.380895000000  
0.242382000000  0.595190000000  0.380867000000  
0.402102000000  0.664062000000  0.391922000000  
0.284743000000  0.628628000000  0.208010000000  
0.341393000000  0.653963000000  0.212893000000  
0.341091000000  0.653873000000  0.225840000000  
0.283944000000  0.628135000000  0.230426000000  
0.274586000000  0.622012000000  0.245358000000  
0.338767000000  0.653160000000  0.252504000000  
0.338369000000  0.653036000000  0.266734000000  
0.273013000000  0.620918000000  0.273909000000  
0.281694000000  0.626721000000  0.288807000000  
0.337769000000  0.652847000000  0.293327000000  
0.338301000000  0.653014000000  0.306441000000  
0.282229000000  0.627060000000  0.311097000000  
0.273611000000  0.621337000000  0.326017000000  
0.338190000000  0.652979000000  0.333157000000  
0.338579000000  0.653102000000  0.347270000000  
0.274132000000  0.621698000000  0.354485000000  
0.283401000000  0.627797000000  0.369532000000  
0.339623000000  0.653426000000  0.374043000000  
0.340171000000  0.653594000000  0.387046000000  
0.284543000000  0.628505000000  0.391912000000  
0.187722000000  0.503963000000  0.208001000000  
0.208453000000  0.551426000000  0.218914000000  
0.207591000000  0.338938000000  0.218936000000  
0.187589000000  0.503517000000  0.230440000000  
0.190475000000  0.512532000000  0.245281000000  
0.222774000000  0.572726000000  0.251835000000  
0.222407000000  0.572243000000  0.267391000000  
0.189859000000  0.510721000000  0.273882000000  
0.186873000000  0.501036000000  0.288720000000  
0.206550000000  0.548133000000  0.299896000000  
0.208255000000  0.337800000000  0.299902000000  
0.186940000000  0.501273000000  0.310962000000  
0.189986000000  0.511098000000  0.325914000000  
0.222750000000  0.572694000000  0.332483000000  
0.222660000000  0.572576000000  0.347951000000  
0.190145000000  0.511568000000  0.354453000000  
0.187326000000  0.502618000000  0.369440000000  
0.208065000000  0.550766000000  0.380895000000  
0.207622000000  0.338884000000  0.380867000000  
0.187623000000  0.503631000000  0.391922000000  
0.187039000000  0.387267000000  0.208010000000  
0.179033000000  0.445980000000  0.212893000000  
0.179031000000  0.445681000000  0.225840000000  
0.187290000000  0.386397000000  0.230426000000  
0.190564000000  0.376099000000  0.245358000000  
0.179030000000  0.443373000000  0.252504000000  
0.179033000000  0.442977000000  0.266734000000  
0.191179000000  0.374349000000  0.273909000000  
0.188018000000  0.383939000000  0.288807000000  
0.179038000000  0.442380000000  0.293327000000  
0.179033000000  0.442909000000  0.306441000000  
0.187842000000  0.384524000000  0.311097000000  
0.190942000000  0.375015000000  0.326017000000  
0.179034000000  0.442799000000  0.333157000000  
0.179031000000  0.443186000000  0.347270000000  
0.190739000000  0.375594000000  0.354485000000  
0.187462000000  0.385805000000  0.369532000000  
0.179027000000  0.444224000000  0.374043000000  
0.179028000000  0.444768000000  0.387046000000  
0.187102000000  0.387049000000  0.391912000000  
0.282596000000  0.261597000000  0.208001000000  
0.241208000000  0.294885000000  0.218914000000  
0.454916000000  0.228448000000  0.218936000000  
0.283005000000  0.261340000000  0.230440000000  
0.274818000000  0.266717000000  0.245281000000  
0.224184000000  0.314330000000  0.251835000000  
0.224557000000  0.313851000000  0.267391000000  
0.276451000000  0.265605000000  0.273882000000  
0.285282000000  0.259930000000  0.288720000000  
0.243935000000  0.292158000000  0.299896000000  
0.456267000000  0.228693000000  0.299902000000  
0.285064000000  0.260064000000  0.310962000000  
0.276111000000  0.265835000000  0.325914000000  
0.224208000000  0.314299000000  0.332483000000  
0.224300000000  0.314181000000  0.347951000000  
0.275687000000  0.266123000000  0.354453000000  
0.283829000000  0.260826000000  0.369440000000  
0.241753000000  0.294332000000  0.380895000000  
0.454980000000  0.228459000000  0.380867000000  
0.282901000000  0.261405000000  0.391922000000  
0.399899000000  0.224923000000  0.208010000000  
0.338301000000  0.235875000000  0.212893000000  
0.338601000000  0.235780000000  0.225840000000  
0.400852000000  0.224879000000  0.230426000000  
0.412233000000  0.224637000000  0.245358000000  
0.340925000000  0.235066000000  0.252504000000  
0.341324000000  0.234946000000  0.266734000000  
0.414187000000  0.224649000000  0.273909000000  
0.403553000000  0.224774000000  0.288807000000  
0.341927000000  0.234766000000  0.293327000000  
0.341393000000  0.234926000000  0.306441000000  
0.402909000000  0.224796000000  0.311097000000  
0.413442000000  0.224643000000  0.326017000000  
0.341504000000  0.234892000000  0.333157000000  
0.341113000000  0.235010000000  0.347270000000  
0.412797000000  0.224639000000  0.354485000000  
0.401501000000  0.224851000000  0.369532000000  
0.340066000000  0.235327000000  0.374043000000  
0.339519000000  0.235495000000  0.387046000000  
0.400137000000  0.224911000000  0.391912000000  
0.555977000000  0.271920000000  0.208001000000  
0.509667000000  0.245030000000  0.218914000000  
0.642608000000  0.416457000000  0.218936000000  
0.556362000000  0.272207000000  0.230440000000  
0.548417000000  0.266516000000  0.245281000000  
0.484824000000  0.235748000000  0.251835000000  
0.485422000000  0.235935000000  0.267391000000  
0.550042000000  0.267639000000  0.273882000000  
0.558485000000  0.273817000000  0.288720000000  
0.513255000000  0.246637000000  0.299896000000  
0.642779000000  0.417747000000  0.299902000000  
0.558284000000  0.273662000000  0.310962000000  
0.549705000000  0.267404000000  0.325914000000  
0.484864000000  0.235760000000  0.332483000000  
0.485010000000  0.235806000000  0.347951000000  
0.549284000000  0.267112000000  0.354453000000  
0.557135000000  0.272789000000  0.369440000000  
0.510391000000  0.245349000000  0.380895000000  
0.642616000000  0.416519000000  0.380867000000  
0.556264000000  0.272134000000  0.391922000000  
0.629157000000  0.365950000000  0.208010000000  
0.599093000000  0.314006000000  0.212893000000  
0.599281000000  0.314247000000  0.225840000000  
0.629495000000  0.366793000000  0.230426000000  
0.633255000000  0.376941000000  0.245358000000  
0.600718000000  0.316113000000  0.252504000000  
0.600962000000  0.316435000000  0.266734000000  
0.633848000000  0.378699000000  0.273909000000  
0.630436000000  0.369186000000  0.288807000000  
0.601330000000  0.316921000000  0.293327000000  
0.601004000000  0.316490000000  0.306441000000  
0.630214000000  0.368615000000  0.311097000000  
0.633624000000  0.378029000000  0.326017000000  
0.601072000000  0.316580000000  0.333157000000  
0.600833000000  0.316265000000  0.347270000000  
0.633428000000  0.377448000000  0.354485000000  
0.629724000000  0.367368000000  0.369532000000  
0.600190000000  0.315423000000  0.374043000000  
0.599852000000  0.314983000000  0.387046000000  
0.629241000000  0.366161000000  0.391912000000  
0.630061000000  0.520666000000  0.408001000000  
0.642828000000  0.470759000000  0.418914000000  
0.511282000000  0.643144000000  0.418936000000  
0.629891000000  0.521100000000  0.430440000000  
0.633167000000  0.512205000000  0.445281000000  
0.644499000000  0.445577000000  0.451835000000  
0.644495000000  0.446172000000  0.467391000000  
0.632538000000  0.514012000000  0.473882000000  
0.628926000000  0.523505000000  0.488720000000  
0.642319000000  0.474480000000  0.499896000000  
0.510037000000  0.643696000000  0.499902000000  
0.629020000000  0.523276000000  0.510962000000  
0.632670000000  0.513637000000  0.525914000000  
0.644499000000  0.445616000000  0.532483000000  
0.644498000000  0.445762000000  0.547951000000  
0.632834000000  0.513168000000  0.554453000000  
0.629544000000  0.521974000000  0.569440000000  
0.642731000000  0.471509000000  0.580895000000  
0.511223000000  0.643170000000  0.580867000000  
0.629934000000  0.520990000000  0.591922000000  
0.557986000000  0.615454000000  0.408010000000  
0.601004000000  0.572399000000  0.412893000000  
0.600820000000  0.572642000000  0.425840000000  
0.557243000000  0.616019000000  0.430426000000  
0.548185000000  0.622532000000  0.445358000000  
0.599384000000  0.574509000000  0.452504000000  
0.599136000000  0.574828000000  0.466734000000  
0.546598000000  0.623607000000  0.473909000000  
0.555123000000  0.617603000000  0.488807000000  
0.598760000000  0.575308000000  0.493327000000  
0.599093000000  0.574883000000  0.506441000000  
0.555630000000  0.617227000000  0.511097000000  
0.547203000000  0.623199000000  0.526017000000  
0.599024000000  0.574972000000  0.533157000000  
0.599267000000  0.574660000000  0.547270000000  
0.547728000000  0.622844000000  0.554485000000  
0.556734000000  0.616402000000  0.569532000000  
0.599916000000  0.573822000000  0.574043000000  
0.600254000000  0.573382000000  0.587046000000  
0.557801000000  0.615595000000  0.591912000000  
0.402467000000  0.664077000000  0.408001000000  
0.456668000000  0.660122000000  0.418914000000  
0.242427000000  0.595235000000  0.418936000000  
0.401977000000  0.664057000000  0.430440000000  
0.411947000000  0.664252000000  0.445281000000  
0.482543000000  0.653841000000  0.451835000000  
0.481943000000  0.654021000000  0.467391000000  
0.409933000000  0.664245000000  0.473882000000  
0.399257000000  0.663934000000  0.488720000000  
0.452764000000  0.660814000000  0.499896000000  
0.241486000000  0.594287000000  0.499902000000  
0.399517000000  0.663947000000  0.510962000000  
0.410351000000  0.664248000000  0.525914000000  
0.482503000000  0.653853000000  0.532483000000  
0.482356000000  0.653897000000  0.547951000000  
0.410874000000  0.664250000000  0.554453000000  
0.400990000000  0.664016000000  0.569440000000  
0.455883000000  0.660267000000  0.580895000000  
0.242382000000  0.595190000000  0.580867000000  
0.402102000000  0.664062000000  0.591922000000  
0.284743000000  0.628628000000  0.408010000000  
0.341393000000  0.653963000000  0.412893000000  
0.341091000000  0.653873000000  0.425840000000  
0.283944000000  0.628135000000  0.430426000000  
0.274586000000  0.622012000000  0.445358000000  
0.338767000000  0.653160000000  0.452504000000  
0.338369000000  0.653036000000  0.466734000000  
0.273013000000  0.620918000000  0.473909000000  
0.281694000000  0.626721000000  0.488807000000  
0.337769000000  0.652847000000  0.493327000000  
0.338301000000  0.653014000000  0.506441000000  
0.282229000000  0.627060000000  0.511097000000  
0.273611000000  0.621337000000  0.526017000000  
0.338190000000  0.652979000000  0.533157000000  
0.338579000000  0.653102000000  0.547270000000  
0.274132000000  0.621698000000  0.554485000000  
0.283401000000  0.627797000000  0.569532000000  
0.339623000000  0.653426000000  0.574043000000  
0.340171000000  0.653594000000  0.587046000000  
0.284543000000  0.628505000000  0.591912000000  
0.187722000000  0.503963000000  0.408001000000  
0.208453000000  0.551426000000  0.418914000000  
0.207591000000  0.338938000000  0.418936000000  
0.187589000000  0.503517000000  0.430440000000  
0.190475000000  0.512532000000  0.445281000000  
0.222774000000  0.572726000000  0.451835000000  
0.222407000000  0.572243000000  0.467391000000  
0.189859000000  0.510721000000  0.473882000000  
0.186873000000  0.501036000000  0.488720000000  
0.206550000000  0.548133000000  0.499896000000  
0.208255000000  0.337800000000  0.499902000000  
0.186940000000  0.501273000000  0.510962000000  
0.189986000000  0.511098000000  0.525914000000  
0.222750000000  0.572694000000  0.532483000000  
0.222660000000  0.572576000000  0.547951000000  
0.190145000000  0.511568000000  0.554453000000  
0.187326000000  0.502618000000  0.569440000000  
0.208065000000  0.550766000000  0.580895000000  
0.207622000000  0.338884000000  0.580867000000  
0.187623000000  0.503631000000  0.591922000000  
0.187039000000  0.387267000000  0.408010000000  
0.179033000000  0.445980000000  0.412893000000  
0.179031000000  0.445681000000  0.425840000000  
0.187290000000  0.386397000000  0.430426000000  
0.190564000000  0.376099000000  0.445358000000  
0.179030000000  0.443373000000  0.452504000000  
0.179033000000  0.442977000000  0.466734000000  
0.191179000000  0.374349000000  0.473909000000  
0.188018000000  0.383939000000  0.488807000000  
0.179038000000  0.442380000000  0.493327000000  
0.179033000000  0.442909000000  0.506441000000  
0.187842000000  0.384524000000  0.511097000000  
0.190942000000  0.375015000000  0.526017000000  
0.179034000000  0.442799000000  0.533157000000  
0.179031000000  0.443186000000  0.547270000000  
0.190739000000  0.375594000000  0.554485000000  
0.187462000000  0.385805000000  0.569532000000  
0.179027000000  0.444224000000  0.574043000000  
0.179028000000  0.444768000000  0.587046000000  
0.187102000000  0.387049000000  0.591912000000  
0.282596000000  0.261597000000  0.408001000000  
0.241208000000  0.294885000000  0.418914000000  
0.454916000000  0.228448000000  0.418936000000  
0.283005000000  0.261340000000  0.430440000000  
0.274818000000  0.266717000000  0.445281000000  
0.224184000000  0.314330000000  0.451835000000  
0.224557000000  0.313851000000  0.467391000000  
0.276451000000  0.265605000000  0.473882000000  
0.285282000000  0.259930000000  0.488720000000  
0.243935000000  0.292158000000  0.499896000000  
0.456267000000  0.228693000000  0.499902000000  
0.285064000000  0.260064000000  0.510962000000  
0.276111000000  0.265835000000  0.525914000000  
0.224208000000  0.314299000000  0.532483000000  
0.224300000000  0.314181000000  0.547951000000  
0.275687000000  0.266123000000  0.554453000000  
0.283829000000  0.260826000000  0.569440000000  
0.241753000000  0.294332000000  0.580895000000  
0.454980000000  0.228459000000  0.580867000000  
0.282901000000  0.261405000000  0.591922000000  
0.399899000000  0.224923000000  0.408010000000  
0.338301000000  0.235875000000  0.412893000000  
0.338601000000  0.235780000000  0.425840000000  
0.400852000000  0.224879000000  0.430426000000  
0.412233000000  0.224637000000  0.445358000000  
0.340925000000  0.235066000000  0.452504000000  
0.341324000000  0.234946000000  0.466734000000  
0.414187000000  0.224649000000  0.473909000000  
0.403553000000  0.224774000000  0.488807000000  
0.341927000000  0.234766000000  0.493327000000  
0.341393000000  0.234926000000  0.506441000000  
0.402909000000  0.224796000000  0.511097000000  
0.413442000000  0.224643000000  0.526017000000  
0.341504000000  0.234892000000  0.533157000000  
0.341113000000  0.235010000000  0.547270000000  
0.412797000000  0.224639000000  0.554485000000  
0.401501000000  0.224851000000  0.569532000000  
0.340066000000  0.235327000000  0.574043000000  
0.339519000000  0.235495000000  0.587046000000  
0.400137000000  0.224911000000  0.591912000000  
0.555977000000  0.271920000000  0.408001000000  
0.509667000000  0.245030000000  0.418914000000  
0.642608000000  0.416457000000  0.418936000000  
0.556362000000  0.272207000000  0.430440000000  
0.548417000000  0.266516000000  0.445281000000  
0.484824000000  0.235748000000  0.451835000000  
0.485422000000  0.235935000000  0.467391000000  
0.550042000000  0.267639000000  0.473882000000  
0.558485000000  0.273817000000  0.488720000000  
0.513255000000  0.246637000000  0.499896000000  
0.642779000000  0.417747000000  0.499902000000  
0.558284000000  0.273662000000  0.510962000000  
0.549705000000  0.267404000000  0.525914000000  
0.484864000000  0.235760000000  0.532483000000  
0.485010000000  0.235806000000  0.547951000000  
0.549284000000  0.267112000000  0.554453000000  
0.557135000000  0.272789000000  0.569440000000  
0.510391000000  0.245349000000  0.580895000000  
0.642616000000  0.416519000000  0.580867000000  
0.556264000000  0.272134000000  0.591922000000  
0.629157000000  0.365950000000  0.408010000000  
0.599093000000  0.314006000000  0.412893000000  
0.599281000000  0.314247000000  0.425840000000  
0.629495000000  0.366793000000  0.430426000000  
0.633255000000  0.376941000000  0.445358000000  
0.600718000000  0.316113000000  0.452504000000  
0.600962000000  0.316435000000  0.466734000000  
0.633848000000  0.378699000000  0.473909000000  
0.630436000000  0.369186000000  0.488807000000  
0.601330000000  0.316921000000  0.493327000000  
0.601004000000  0.316490000000  0.506441000000  
0.630214000000  0.368615000000  0.511097000000  
0.633624000000  0.378029000000  0.526017000000  
0.601072000000  0.316580000000  0.533157000000  
0.600833000000  0.316265000000  0.547270000000  
0.633428000000  0.377448000000  0.554485000000  
0.629724000000  0.367368000000  0.569532000000  
0.600190000000  0.315423000000  0.574043000000  
0.599852000000  0.314983000000  0.587046000000  
0.629241000000  0.366161000000  0.591912000000  
0.630061000000  0.520666000000  0.608001000000  
0.642828000000  0.470759000000  0.618914000000  
0.511282000000  0.643144000000  0.618936000000  
0.629891000000  0.521100000000  0.630440000000  
0.633167000000  0.512205000000  0.645281000000  
0.644499000000  0.445577000000  0.651835000000  
0.644495000000  0.446172000000  0.667391000000  
0.632538000000  0.514012000000  0.673882000000  