ATOMIC_SPECIES
C 12.011 C_ONCV_PBE-1.0.upf

NUMERICAL_ORBITAL
C_gga_8au_60Ry_2s2p1d.orb

LATTICE_CONSTANT
1

LATTICE_VECTORS
32.1253418058417  0.00000000000000  0.000000000000000
0.00000000000000  34.0150677944206  0.000000000000000
0.00000000000000  0.00000000000000  203.4203552843973

ATOMIC_POSITIONS
Direct

C
0
1000
0.6300610000  0.5206660000  0.0080010000  1  1  1
0.6428280000  0.4707590000  0.0189140000  1  1  1
0.5112820000  0.6431440000  0.0189360000  1  1  1
0.6298910000  0.5211000000  0.0304400000  1  1  1
0.6331670000  0.5122050000  0.0452810000  1  1  1
0.6444990000  0.4455770000  0.0518350000  1  1  1
0.6444950000  0.4461720000  0.0673910000  1  1  1
0.6325380000  0.5140120000  0.0738820000  1  1  1
0.6289260000  0.5235050000  0.0887200000  1  1  1
0.6423190000  0.4744800000  0.0998960000  1  1  1
0.5100370000  0.6436960000  0.0999020000  1  1  1
0.6290200000  0.5232760000  0.1109620000  1  1  1
0.6326700000  0.5136370000  0.1259140000  1  1  1
0.6444990000  0.4456160000  0.1324830000  1  1  1
0.6444980000  0.4457620000  0.1479510000  1  1  1
0.6328340000  0.5131680000  0.1544530000  1  1  1
0.6295440000  0.5219740000  0.1694400000  1  1  1
0.6427310000  0.4715090000  0.1808950000  1  1  1
0.5112230000  0.6431700000  0.1808670000  1  1  1
0.6299340000  0.5209900000  0.1919220000  1  1  1
0.5579860000  0.6154540000  0.0080100000  1  1  1
0.6010040000  0.5723990000  0.0128930000  1  1  1
0.6008200000  0.5726420000  0.0258400000  1  1  1
0.5572430000  0.6160190000  0.0304260000  1  1  1
0.5481850000  0.6225320000  0.0453580000  1  1  1
0.5993840000  0.5745090000  0.0525040000  1  1  1
0.5991360000  0.5748280000  0.0667340000  1  1  1
0.5465980000  0.6236070000  0.0739090000  1  1  1
0.5551230000  0.6176030000  0.0888070000  1  1  1
0.5987600000  0.5753080000  0.0933270000  1  1  1
0.5990930000  0.5748830000  0.1064410000  1  1  1
0.5556300000  0.6172270000  0.1110970000  1  1  1
0.5472030000  0.6231990000  0.1260170000  1  1  1
0.5990240000  0.5749720000  0.1331570000  1  1  1
0.5992670000  0.5746600000  0.1472700000  1  1  1
0.5477280000  0.6228440000  0.1544850000  1  1  1
0.5567340000  0.6164020000  0.1695320000  1  1  1
0.5999160000  0.5738220000  0.1740430000  1  1  1
0.6002540000  0.5733820000  0.1870460000  1  1  1
0.5578010000  0.6155950000  0.1919120000  1  1  1
0.4024670000  0.6640770000  0.0080010000  1  1  1
0.4566680000  0.6601220000  0.0189140000  1  1  1
0.2424270000  0.5952350000  0.0189360000  1  1  1
0.4019770000  0.6640570000  0.0304400000  1  1  1
0.4119470000  0.6642520000  0.0452810000  1  1  1
0.4825430000  0.6538410000  0.0518350000  1  1  1
0.4819430000  0.6540210000  0.0673910000  1  1  1
0.4099330000  0.6642450000  0.0738820000  1  1  1
0.3992570000  0.6639340000  0.0887200000  1  1  1
0.4527640000  0.6608140000  0.0998960000  1  1  1
0.2414860000  0.5942870000  0.0999020000  1  1  1
0.3995170000  0.6639470000  0.1109620000  1  1  1
0.4103510000  0.6642480000  0.1259140000  1  1  1
0.4825030000  0.6538530000  0.1324830000  1  1  1
0.4823560000  0.6538970000  0.1479510000  1  1  1
0.4108740000  0.6642500000  0.1544530000  1  1  1
0.4009900000  0.6640160000  0.1694400000  1  1  1
0.4558830000  0.6602670000  0.1808950000  1  1  1
0.2423820000  0.5951900000  0.1808670000  1  1  1
0.4021020000  0.6640620000  0.1919220000  1  1  1
0.2847430000  0.6286280000  0.0080100000  1  1  1
0.3413930000  0.6539630000  0.0128930000  1  1  1
0.3410910000  0.6538730000  0.0258400000  1  1  1
0.2839440000  0.6281350000  0.0304260000  1  1  1
0.2745860000  0.6220120000  0.0453580000  1  1  1
0.3387670000  0.6531600000  0.0525040000  1  1  1
0.3383690000  0.6530360000  0.0667340000  1  1  1
0.2730130000  0.6209180000  0.0739090000  1  1  1
0.2816940000  0.6267210000  0.0888070000  1  1  1
0.3377690000  0.6528470000  0.0933270000  1  1  1
0.3383010000  0.6530140000  0.1064410000  1  1  1
0.2822290000  0.6270600000  0.1110970000  1  1  1
0.2736110000  0.6213370000  0.1260170000  1  1  1
0.3381900000  0.6529790000  0.1331570000  1  1  1
0.3385790000  0.6531020000  0.1472700000  1  1  1
0.2741320000  0.6216980000  0.1544850000  1  1  1
0.2834010000  0.6277970000  0.1695320000  1  1  1
0.3396230000  0.6534260000  0.1740430000  1  1  1
0.3401710000  0.6535940000  0.1870460000  1  1  1
0.2845430000  0.6285050000  0.1919120000  1  1  1
0.1877220000  0.5039630000  0.0080010000  1  1  1
0.2084530000  0.5514260000  0.0189140000  1  1  1
0.2075910000  0.3389380000  0.0189360000  1  1  1
0.1875890000  0.5035170000  0.0304400000  1  1  1
0.1904750000  0.5125320000  0.0452810000  1  1  1
0.2227740000  0.5727260000  0.0518350000  1  1  1
0.2224070000  0.5722430000  0.0673910000  1  1  1
0.1898590000  0.5107210000  0.0738820000  1  1  1
0.1868730000  0.5010360000  0.0887200000  1  1  1
0.2065500000  0.5481330000  0.0998960000  1  1  1
0.2082550000  0.3378000000  0.0999020000  1  1  1
0.1869400000  0.5012730000  0.1109620000  1  1  1
0.1899860000  0.5110980000  0.1259140000  1  1  1
0.2227500000  0.5726940000  0.1324830000  1  1  1
0.2226600000  0.5725760000  0.1479510000  1  1  1
0.1901450000  0.5115680000  0.1544530000  1  1  1
0.1873260000  0.5026180000  0.1694400000  1  1  1
0.2080650000  0.5507660000  0.1808950000  1  1  1
0.2076220000  0.3388840000  0.1808670000  1  1  1
0.1876230000  0.5036310000  0.1919220000  1  1  1
0.1870390000  0.3872670000  0.0080100000  1  1  1
0.1790330000  0.4459800000  0.0128930000  1  1  1
0.1790310000  0.4456810000  0.0258400000  1  1  1
0.1872900000  0.3863970000  0.0304260000  1  1  1
0.1905640000  0.3760990000  0.0453580000  1  1  1
0.1790300000  0.4433730000  0.0525040000  1  1  1
0.1790330000  0.4429770000  0.0667340000  1  1  1
0.1911790000  0.3743490000  0.0739090000  1  1  1
0.1880180000  0.3839390000  0.0888070000  1  1  1
0.1790380000  0.4423800000  0.0933270000  1  1  1
0.1790330000  0.4429090000  0.1064410000  1  1  1
0.1878420000  0.3845240000  0.1110970000  1  1  1
0.1909420000  0.3750150000  0.1260170000  1  1  1
0.1790340000  0.4427990000  0.1331570000  1  1  1
0.1790310000  0.4431860000  0.1472700000  1  1  1
0.1907390000  0.3755940000  0.1544850000  1  1  1
0.1874620000  0.3858050000  0.1695320000  1  1  1
0.1790270000  0.4442240000  0.1740430000  1  1  1
0.1790280000  0.4447680000  0.1870460000  1  1  1
0.1871020000  0.3870490000  0.1919120000  1  1  1
0.2825960000  0.2615970000  0.0080010000  1  1  1
0.2412080000  0.2948850000  0.0189140000  1  1  1
0.4549160000  0.2284480000  0.0189360000  1  1  1
0.2830050000  0.2613400000  0.0304400000  1  1  1
0.2748180000  0.2667170000  0.0452810000  1  1  1
0.2241840000  0.3143300000  0.0518350000  1  1  1
0.2245570000  0.3138510000  0.0673910000  1  1  1
0.2764510000  0.2656050000  0.0738820000  1  1  1
0.2852820000  0.2599300000  0.0887200000  1  1  1
0.2439350000  0.2921580000  0.0998960000  1  1  1
0.4562670000  0.2286930000  0.0999020000  1  1  1
0.2850640000  0.2600640000  0.1109620000  1  1  1
0.2761110000  0.2658350000  0.1259140000  1  1  1
0.2242080000  0.3142990000  0.1324830000  1  1  1
0.2243000000  0.3141810000  0.1479510000  1  1  1
0.2756870000  0.2661230000  0.1544530000  1  1  1
0.2838290000  0.2608260000  0.1694400000  1  1  1
0.2417530000  0.2943320000  0.1808950000  1  1  1
0.4549800000  0.2284590000  0.1808670000  1  1  1
0.2829010000  0.2614050000  0.1919220000  1  1  1
0.3998990000  0.2249230000  0.0080100000  1  1  1
0.3383010000  0.2358750000  0.0128930000  1  1  1
0.3386010000  0.2357800000  0.0258400000  1  1  1
0.4008520000  0.2248790000  0.0304260000  1  1  1
0.4122330000  0.2246370000  0.0453580000  1  1  1
0.3409250000  0.2350660000  0.0525040000  1  1  1
0.3413240000  0.2349460000  0.0667340000  1  1  1
0.4141870000  0.2246490000  0.0739090000  1  1  1
0.4035530000  0.2247740000  0.0888070000  1  1  1
0.3419270000  0.2347660000  0.0933270000  1  1  1
0.3413930000  0.2349260000  0.1064410000  1  1  1
0.4029090000  0.2247960000  0.1110970000  1  1  1
0.4134420000  0.2246430000  0.1260170000  1  1  1
0.3415040000  0.2348920000  0.1331570000  1  1  1
0.3411130000  0.2350100000  0.1472700000  1  1  1
0.4127970000  0.2246390000  0.1544850000  1  1  1
0.4015010000  0.2248510000  0.1695320000  1  1  1
0.3400660000  0.2353270000  0.1740430000  1  1  1
0.3395190000  0.2354950000  0.1870460000  1  1  1
0.4001370000  0.2249110000  0.1919120000  1  1  1
0.5559770000  0.2719200000  0.0080010000  1  1  1
0.5096670000  0.2450300000  0.0189140000  1  1  1
0.6426080000  0.4164570000  0.0189360000  1  1  1
0.5563620000  0.2722070000  0.0304400000  1  1  1
0.5484170000  0.2665160000  0.0452810000  1  1  1
0.4848240000  0.2357480000  0.0518350000  1  1  1
0.4854220000  0.2359350000  0.0673910000  1  1  1
0.5500420000  0.2676390000  0.0738820000  1  1  1
0.5584850000  0.2738170000  0.0887200000  1  1  1
0.5132550000  0.2466370000  0.0998960000  1  1  1
0.6427790000  0.4177470000  0.0999020000  1  1  1
0.5582840000  0.2736620000  0.1109620000  1  1  1
0.5497050000  0.2674040000  0.1259140000  1  1  1
0.4848640000  0.2357600000  0.1324830000  1  1  1
0.4850100000  0.2358060000  0.1479510000  1  1  1
0.5492840000  0.2671120000  0.1544530000  1  1  1
0.5571350000  0.2727890000  0.1694400000  1  1  1
0.5103910000  0.2453490000  0.1808950000  1  1  1
0.6426160000  0.4165190000  0.1808670000  1  1  1
0.5562640000  0.2721340000  0.1919220000  1  1  1
0.6291570000  0.3659500000  0.0080100000  1  1  1
0.5990930000  0.3140060000  0.0128930000  1  1  1
0.5992810000  0.3142470000  0.0258400000  1  1  1
0.6294950000  0.3667930000  0.0304260000  1  1  1
0.6332550000  0.3769410000  0.0453580000  1  1  1
0.6007180000  0.3161130000  0.0525040000  1  1  1
0.6009620000  0.3164350000  0.0667340000  1  1  1
0.6338480000  0.3786990000  0.0739090000  1  1  1
0.6304360000  0.3691860000  0.0888070000  1  1  1
0.6013300000  0.3169210000  0.0933270000  1  1  1
0.6010040000  0.3164900000  0.1064410000  1  1  1
0.6302140000  0.3686150000  0.1110970000  1  1  1
0.6336240000  0.3780290000  0.1260170000  1  1  1
0.6010720000  0.3165800000  0.1331570000  1  1  1
0.6008330000  0.3162650000  0.1472700000  1  1  1
0.6334280000  0.3774480000  0.1544850000  1  1  1
0.6297240000  0.3673680000  0.1695320000  1  1  1
0.6001900000  0.3154230000  0.1740430000  1  1  1
0.5998520000  0.3149830000  0.1870460000  1  1  1
0.6292410000  0.3661610000  0.1919120000  1  1  1
0.6300610000  0.5206660000  0.2080010000  1  1  1
0.6428280000  0.4707590000  0.2189140000  1  1  1
0.5112820000  0.6431440000  0.2189360000  1  1  1
0.6298910000  0.5211000000  0.2304400000  1  1  1
0.6331670000  0.5122050000  0.2452810000  1  1  1
0.6444990000  0.4455770000  0.2518350000  1  1  1
0.6444950000  0.4461720000  0.2673910000  1  1  1
0.6325380000  0.5140120000  0.2738820000  1  1  1
0.6289260000  0.5235050000  0.2887200000  1  1  1
0.6423190000  0.4744800000  0.2998960000  1  1  1
0.5100370000  0.6436960000  0.2999020000  1  1  1
0.6290200000  0.5232760000  0.3109620000  1  1  1
0.6326700000  0.5136370000  0.3259140000  1  1  1
0.6444990000  0.4456160000  0.3324830000  1  1  1
0.6444980000  0.4457620000  0.3479510000  1  1  1
0.6328340000  0.5131680000  0.3544530000  1  1  1
0.6295440000  0.5219740000  0.3694400000  1  1  1
0.6427310000  0.4715090000  0.3808950000  1  1  1
0.5112230000  0.6431700000  0.3808670000  1  1  1
0.6299340000  0.5209900000  0.3919220000  1  1  1
0.5579860000  0.6154540000  0.2080100000  1  1  1
0.6010040000  0.5723990000  0.2128930000  1  1  1
0.6008200000  0.5726420000  0.2258400000  1  1  1
0.5572430000  0.6160190000  0.2304260000  1  1  1
0.5481850000  0.6225320000  0.2453580000  1  1  1
0.5993840000  0.5745090000  0.2525040000  1  1  1
0.5991360000  0.5748280000  0.2667340000  1  1  1
0.5465980000  0.6236070000  0.2739090000  1  1  1
0.5551230000  0.6176030000  0.2888070000  1  1  1
0.5987600000  0.5753080000  0.2933270000  1  1  1
0.5990930000  0.5748830000  0.3064410000  1  1  1
0.5556300000  0.6172270000  0.3110970000  1  1  1
0.5472030000  0.6231990000  0.3260170000  1  1  1
0.5990240000  0.5749720000  0.3331570000  1  1  1
0.5992670000  0.5746600000  0.3472700000  1  1  1
0.5477280000  0.6228440000  0.3544850000  1  1  1
0.5567340000  0.6164020000  0.3695320000  1  1  1
0.5999160000  0.5738220000  0.3740430000  1  1  1
0.6002540000  0.5733820000  0.3870460000  1  1  1
0.5578010000  0.6155950000  0.3919120000  1  1  1
0.4024670000  0.6640770000  0.2080010000  1  1  1
0.4566680000  0.6601220000  0.2189140000  1  1  1
0.2424270000  0.5952350000  0.2189360000  1  1  1
0.4019770000  0.6640570000  0.2304400000  1  1  1
0.4119470000  0.6642520000  0.2452810000  1  1  1
0.4825430000  0.6538410000  0.2518350000  1  1  1
0.4819430000  0.6540210000  0.2673910000  1  1  1
0.4099330000  0.6642450000  0.2738820000  1  1  1
0.3992570000  0.6639340000  0.2887200000  1  1  1
0.4527640000  0.6608140000  0.2998960000  1  1  1
0.2414860000  0.5942870000  0.2999020000  1  1  1
0.3995170000  0.6639470000  0.3109620000  1  1  1
0.4103510000  0.6642480000  0.3259140000  1  1  1
0.4825030000  0.6538530000  0.3324830000  1  1  1
0.4823560000  0.6538970000  0.3479510000  1  1  1
0.4108740000  0.6642500000  0.3544530000  1  1  1
0.4009900000  0.6640160000  0.3694400000  1  1  1
0.4558830000  0.6602670000  0.3808950000  1  1  1
0.2423820000  0.5951900000  0.3808670000  1  1  1
0.4021020000  0.6640620000  0.3919220000  1  1  1
0.2847430000  0.6286280000  0.2080100000  1  1  1
0.3413930000  0.6539630000  0.2128930000  1  1  1
0.3410910000  0.6538730000  0.2258400000  1  1  1
0.2839440000  0.6281350000  0.2304260000  1  1  1
0.2745860000  0.6220120000  0.2453580000  1  1  1
0.3387670000  0.6531600000  0.2525040000  1  1  1
0.3383690000  0.6530360000  0.2667340000  1  1  1
0.2730130000  0.6209180000  0.2739090000  1  1  1
0.2816940000  0.6267210000  0.2888070000  1  1  1
0.3377690000  0.6528470000  0.2933270000  1  1  1
0.3383010000  0.6530140000  0.3064410000  1  1  1
0.2822290000  0.6270600000  0.3110970000  1  1  1
0.2736110000  0.6213370000  0.3260170000  1  1  1
0.3381900000  0.6529790000  0.3331570000  1  1  1
0.3385790000  0.6531020000  0.3472700000  1  1  1
0.2741320000  0.6216980000  0.3544850000  1  1  1
0.2834010000  0.6277970000  0.3695320000  1  1  1
0.3396230000  0.6534260000  0.3740430000  1  1  1
0.3401710000  0.6535940000  0.3870460000  1  1  1
0.2845430000  0.6285050000  0.3919120000  1  1  1
0.1877220000  0.5039630000  0.2080010000  1  1  1
0.2084530000  0.5514260000  0.2189140000  1  1  1
0.2075910000  0.3389380000  0.2189360000  1  1  1
0.1875890000  0.5035170000  0.2304400000  1  1  1
0.1904750000  0.5125320000  0.2452810000  1  1  1
0.2227740000  0.5727260000  0.2518350000  1  1  1
0.2224070000  0.5722430000  0.2673910000  1  1  1
0.1898590000  0.5107210000  0.2738820000  1  1  1
0.1868730000  0.5010360000  0.2887200000  1  1  1
0.2065500000  0.5481330000  0.2998960000  1  1  1
0.2082550000  0.3378000000  0.2999020000  1  1  1
0.1869400000  0.5012730000  0.3109620000  1  1  1
0.1899860000  0.5110980000  0.3259140000  1  1  1
0.2227500000  0.5726940000  0.3324830000  1  1  1
0.2226600000  0.5725760000  0.3479510000  1  1  1
0.1901450000  0.5115680000  0.3544530000  1  1  1
0.1873260000  0.5026180000  0.3694400000  1  1  1
0.2080650000  0.5507660000  0.3808950000  1  1  1
0.2076220000  0.3388840000  0.3808670000  1  1  1
0.1876230000  0.5036310000  0.3919220000  1  1  1
0.1870390000  0.3872670000  0.2080100000  1  1  1
0.1790330000  0.4459800000  0.2128930000  1  1  1
0.1790310000  0.4456810000  0.2258400000  1  1  1
0.1872900000  0.3863970000  0.2304260000  1  1  1
0.1905640000  0.3760990000  0.2453580000  1  1  1
0.1790300000  0.4433730000  0.2525040000  1  1  1
0.1790330000  0.4429770000  0.2667340000  1  1  1
0.1911790000  0.3743490000  0.2739090000  1  1  1
0.1880180000  0.3839390000  0.2888070000  1  1  1
0.1790380000  0.4423800000  0.2933270000  1  1  1
0.1790330000  0.4429090000  0.3064410000  1  1  1
0.1878420000  0.3845240000  0.3110970000  1  1  1
0.1909420000  0.3750150000  0.3260170000  1  1  1
0.1790340000  0.4427990000  0.3331570000  1  1  1
0.1790310000  0.4431860000  0.3472700000  1  1  1
0.1907390000  0.3755940000  0.3544850000  1  1  1
0.1874620000  0.3858050000  0.3695320000  1  1  1
0.1790270000  0.4442240000  0.3740430000  1  1  1
0.1790280000  0.4447680000  0.3870460000  1  1  1
0.1871020000  0.3870490000  0.3919120000  1  1  1
0.2825960000  0.2615970000  0.2080010000  1  1  1
0.2412080000  0.2948850000  0.2189140000  1  1  1
0.4549160000  0.2284480000  0.2189360000  1  1  1
0.2830050000  0.2613400000  0.2304400000  1  1  1
0.2748180000  0.2667170000  0.2452810000  1  1  1
0.2241840000  0.3143300000  0.2518350000  1  1  1
0.2245570000  0.3138510000  0.2673910000  1  1  1
0.2764510000  0.2656050000  0.2738820000  1  1  1
0.2852820000  0.2599300000  0.2887200000  1  1  1
0.2439350000  0.2921580000  0.2998960000  1  1  1
0.4562670000  0.2286930000  0.2999020000  1  1  1
0.2850640000  0.2600640000  0.3109620000  1  1  1
0.2761110000  0.2658350000  0.3259140000  1  1  1
0.2242080000  0.3142990000  0.3324830000  1  1  1
0.2243000000  0.3141810000  0.3479510000  1  1  1
0.2756870000  0.2661230000  0.3544530000  1  1  1
0.2838290000  0.2608260000  0.3694400000  1  1  1
0.2417530000  0.2943320000  0.3808950000  1  1  1
0.4549800000  0.2284590000  0.3808670000  1  1  1
0.2829010000  0.2614050000  0.3919220000  1  1  1
0.3998990000  0.2249230000  0.2080100000  1  1  1
0.3383010000  0.2358750000  0.2128930000  1  1  1
0.3386010000  0.2357800000  0.2258400000  1  1  1
0.4008520000  0.2248790000  0.2304260000  1  1  1
0.4122330000  0.2246370000  0.2453580000  1  1  1
0.3409250000  0.2350660000  0.2525040000  1  1  1
0.3413240000  0.2349460000  0.2667340000  1  1  1
0.4141870000  0.2246490000  0.2739090000  1  1  1
0.4035530000  0.2247740000  0.2888070000  1  1  1
0.3419270000  0.2347660000  0.2933270000  1  1  1
0.3413930000  0.2349260000  0.3064410000  1  1  1
0.4029090000  0.2247960000  0.3110970000  1  1  1
0.4134420000  0.2246430000  0.3260170000  1  1  1
0.3415040000  0.2348920000  0.3331570000  1  1  1
0.3411130000  0.2350100000  0.3472700000  1  1  1
0.4127970000  0.2246390000  0.3544850000  1  1  1
0.4015010000  0.2248510000  0.3695320000  1  1  1
0.3400660000  0.2353270000  0.3740430000  1  1  1
0.3395190000  0.2354950000  0.3870460000  1  1  1
0.4001370000  0.2249110000  0.3919120000  1  1  1
0.5559770000  0.2719200000  0.2080010000  1  1  1
0.5096670000  0.2450300000  0.2189140000  1  1  1
0.6426080000  0.4164570000  0.2189360000  1  1  1
0.5563620000  0.2722070000  0.2304400000  1  1  1
0.5484170000  0.2665160000  0.2452810000  1  1  1
0.4848240000  0.2357480000  0.2518350000  1  1  1
0.4854220000  0.2359350000  0.2673910000  1  1  1
0.5500420000  0.2676390000  0.2738820000  1  1  1
0.5584850000  0.2738170000  0.2887200000  1  1  1
0.5132550000  0.2466370000  0.2998960000  1  1  1
0.6427790000  0.4177470000  0.2999020000  1  1  1
0.5582840000  0.2736620000  0.3109620000  1  1  1
0.5497050000  0.2674040000  0.3259140000  1  1  1
0.4848640000  0.2357600000  0.3324830000  1  1  1
0.4850100000  0.2358060000  0.3479510000  1  1  1
0.5492840000  0.2671120000  0.3544530000  1  1  1
0.5571350000  0.2727890000  0.3694400000  1  1  1
0.5103910000  0.2453490000  0.3808950000  1  1  1
0.6426160000  0.4165190000  0.3808670000  1  1  1
0.5562640000  0.2721340000  0.3919220000  1  1  1
0.6291570000  0.3659500000  0.2080100000  1  1  1
0.5990930000  0.3140060000  0.2128930000  1  1  1
0.5992810000  0.3142470000  0.2258400000  1  1  1
0.6294950000  0.3667930000  0.2304260000  1  1  1
0.6332550000  0.3769410000  0.2453580000  1  1  1
0.6007180000  0.3161130000  0.2525040000  1  1  1
0.6009620000  0.3164350000  0.2667340000  1  1  1
0.6338480000  0.3786990000  0.2739090000  1  1  1
0.6304360000  0.3691860000  0.2888070000  1  1  1
0.6013300000  0.3169210000  0.2933270000  1  1  1
0.6010040000  0.3164900000  0.3064410000  1  1  1
0.6302140000  0.3686150000  0.3110970000  1  1  1
0.6336240000  0.3780290000  0.3260170000  1  1  1
0.6010720000  0.3165800000  0.3331570000  1  1  1
0.6008330000  0.3162650000  0.3472700000  1  1  1
0.6334280000  0.3774480000  0.3544850000  1  1  1
0.6297240000  0.3673680000  0.3695320000  1  1  1
0.6001900000  0.3154230000  0.3740430000  1  1  1
0.5998520000  0.3149830000  0.3870460000  1  1  1
0.6292410000  0.3661610000  0.3919120000  1  1  1
0.6300610000  0.5206660000  0.4080010000  1  1  1
0.6428280000  0.4707590000  0.4189140000  1  1  1
0.5112820000  0.6431440000  0.4189360000  1  1  1
0.6298910000  0.5211000000  0.4304400000  1  1  1
0.6331670000  0.5122050000  0.4452810000  1  1  1
0.6444990000  0.4455770000  0.4518350000  1  1  1
0.6444950000  0.4461720000  0.4673910000  1  1  1
0.6325380000  0.5140120000  0.4738820000  1  1  1
0.6289260000  0.5235050000  0.4887200000  1  1  1
0.6423190000  0.4744800000  0.4998960000  1  1  1
0.5100370000  0.6436960000  0.4999020000  1  1  1
0.6290200000  0.5232760000  0.5109620000  1  1  1
0.6326700000  0.5136370000  0.5259140000  1  1  1
0.6444990000  0.4456160000  0.5324830000  1  1  1
0.6444980000  0.4457620000  0.5479510000  1  1  1
0.6328340000  0.5131680000  0.5544530000  1  1  1
0.6295440000  0.5219740000  0.5694400000  1  1  1
0.6427310000  0.4715090000  0.5808950000  1  1  1
0.5112230000  0.6431700000  0.5808670000  1  1  1
0.6299340000  0.5209900000  0.5919220000  1  1  1
0.5579860000  0.6154540000  0.4080100000  1  1  1
0.6010040000  0.5723990000  0.4128930000  1  1  1
0.6008200000  0.5726420000  0.4258400000  1  1  1
0.5572430000  0.6160190000  0.4304260000  1  1  1
0.5481850000  0.6225320000  0.4453580000  1  1  1
0.5993840000  0.5745090000  0.4525040000  1  1  1
0.5991360000  0.5748280000  0.4667340000  1  1  1
0.5465980000  0.6236070000  0.4739090000  1  1  1
0.5551230000  0.6176030000  0.4888070000  1  1  1
0.5987600000  0.5753080000  0.4933270000  1  1  1
0.5990930000  0.5748830000  0.5064410000  1  1  1
0.5556300000  0.6172270000  0.5110970000  1  1  1
0.5472030000  0.6231990000  0.5260170000  1  1  1
0.5990240000  0.5749720000  0.5331570000  1  1  1
0.5992670000  0.5746600000  0.5472700000  1  1  1
0.5477280000  0.6228440000  0.5544850000  1  1  1
0.5567340000  0.6164020000  0.5695320000  1  1  1
0.5999160000  0.5738220000  0.5740430000  1  1  1
0.6002540000  0.5733820000  0.5870460000  1  1  1
0.5578010000  0.6155950000  0.5919120000  1  1  1
0.4024670000  0.6640770000  0.4080010000  1  1  1
0.4566680000  0.6601220000  0.4189140000  1  1  1
0.2424270000  0.5952350000  0.4189360000  1  1  1
0.4019770000  0.6640570000  0.4304400000  1  1  1
0.4119470000  0.6642520000  0.4452810000  1  1  1
0.4825430000  0.6538410000  0.4518350000  1  1  1
0.4819430000  0.6540210000  0.4673910000  1  1  1
0.4099330000  0.6642450000  0.4738820000  1  1  1
0.3992570000  0.6639340000  0.4887200000  1  1  1
0.4527640000  0.6608140000  0.4998960000  1  1  1
0.2414860000  0.5942870000  0.4999020000  1  1  1
0.3995170000  0.6639470000  0.5109620000  1  1  1
0.4103510000  0.6642480000  0.5259140000  1  1  1
0.4825030000  0.6538530000  0.5324830000  1  1  1
0.4823560000  0.6538970000  0.5479510000  1  1  1
0.4108740000  0.6642500000  0.5544530000  1  1  1
0.4009900000  0.6640160000  0.5694400000  1  1  1
0.4558830000  0.6602670000  0.5808950000  1  1  1
0.2423820000  0.5951900000  0.5808670000  1  1  1
0.4021020000  0.6640620000  0.5919220000  1  1  1
0.2847430000  0.6286280000  0.4080100000  1  1  1
0.3413930000  0.6539630000  0.4128930000  1  1  1
0.3410910000  0.6538730000  0.4258400000  1  1  1
0.2839440000  0.6281350000  0.4304260000  1  1  1
0.2745860000  0.6220120000  0.4453580000  1  1  1
0.3387670000  0.6531600000  0.4525040000  1  1  1
0.3383690000  0.6530360000  0.4667340000  1  1  1
0.2730130000  0.6209180000  0.4739090000  1  1  1
0.2816940000  0.6267210000  0.4888070000  1  1  1
0.3377690000  0.6528470000  0.4933270000  1  1  1
0.3383010000  0.6530140000  0.5064410000  1  1  1
0.2822290000  0.6270600000  0.5110970000  1  1  1
0.2736110000  0.6213370000  0.5260170000  1  1  1
0.3381900000  0.6529790000  0.5331570000  1  1  1
0.3385790000  0.6531020000  0.5472700000  1  1  1
0.2741320000  0.6216980000  0.5544850000  1  1  1
0.2834010000  0.6277970000  0.5695320000  1  1  1
0.3396230000  0.6534260000  0.5740430000  1  1  1
0.3401710000  0.6535940000  0.5870460000  1  1  1
0.2845430000  0.6285050000  0.5919120000  1  1  1
0.1877220000  0.5039630000  0.4080010000  1  1  1
0.2084530000  0.5514260000  0.4189140000  1  1  1
0.2075910000  0.3389380000  0.4189360000  1  1  1
0.1875890000  0.5035170000  0.4304400000  1  1  1
0.1904750000  0.5125320000  0.4452810000  1  1  1
0.2227740000  0.5727260000  0.4518350000  1  1  1
0.2224070000  0.5722430000  0.4673910000  1  1  1
0.1898590000  0.5107210000  0.4738820000  1  1  1
0.1868730000  0.5010360000  0.4887200000  1  1  1
0.2065500000  0.5481330000  0.4998960000  1  1  1
0.2082550000  0.3378000000  0.4999020000  1  1  1
0.1869400000  0.5012730000  0.5109620000  1  1  1
0.1899860000  0.5110980000  0.5259140000  1  1  1
0.2227500000  0.5726940000  0.5324830000  1  1  1
0.2226600000  0.5725760000  0.5479510000  1  1  1
0.1901450000  0.5115680000  0.5544530000  1  1  1
0.1873260000  0.5026180000  0.5694400000  1  1  1
0.2080650000  0.5507660000  0.5808950000  1  1  1
0.2076220000  0.3388840000  0.5808670000  1  1  1
0.1876230000  0.5036310000  0.5919220000  1  1  1
0.1870390000  0.3872670000  0.4080100000  1  1  1
0.1790330000  0.4459800000  0.4128930000  1  1  1
0.1790310000  0.4456810000  0.4258400000  1  1  1
0.1872900000  0.3863970000  0.4304260000  1  1  1
0.1905640000  0.3760990000  0.4453580000  1  1  1
0.1790300000  0.4433730000  0.4525040000  1  1  1
0.1790330000  0.4429770000  0.4667340000  1  1  1
0.1911790000  0.3743490000  0.4739090000  1  1  1
0.1880180000  0.3839390000  0.4888070000  1  1  1
0.1790380000  0.4423800000  0.4933270000  1  1  1
0.1790330000  0.4429090000  0.5064410000  1  1  1
0.1878420000  0.3845240000  0.5110970000  1  1  1
0.1909420000  0.3750150000  0.5260170000  1  1  1
0.1790340000  0.4427990000  0.5331570000  1  1  1
0.1790310000  0.4431860000  0.5472700000  1  1  1
0.1907390000  0.3755940000  0.5544850000  1  1  1
0.1874620000  0.3858050000  0.5695320000  1  1  1
0.1790270000  0.4442240000  0.5740430000  1  1  1
0.1790280000  0.4447680000  0.5870460000  1  1  1
0.1871020000  0.3870490000  0.5919120000  1  1  1
0.2825960000  0.2615970000  0.4080010000  1  1  1
0.2412080000  0.2948850000  0.4189140000  1  1  1
0.4549160000  0.2284480000  0.4189360000  1  1  1
0.2830050000  0.2613400000  0.4304400000  1  1  1
0.2748180000  0.2667170000  0.4452810000  1  1  1
0.2241840000  0.3143300000  0.4518350000  1  1  1
0.2245570000  0.3138510000  0.4673910000  1  1  1
0.2764510000  0.2656050000  0.4738820000  1  1  1
0.2852820000  0.2599300000  0.4887200000  1  1  1
0.2439350000  0.2921580000  0.4998960000  1  1  1
0.4562670000  0.2286930000  0.4999020000  1  1  1
0.2850640000  0.2600640000  0.5109620000  1  1  1
0.2761110000  0.2658350000  0.5259140000  1  1  1
0.2242080000  0.3142990000  0.5324830000  1  1  1
0.2243000000  0.3141810000  0.5479510000  1  1  1
0.2756870000  0.2661230000  0.5544530000  1  1  1
0.2838290000  0.2608260000  0.5694400000  1  1  1
0.2417530000  0.2943320000  0.5808950000  1  1  1
0.4549800000  0.2284590000  0.5808670000  1  1  1
0.2829010000  0.2614050000  0.5919220000  1  1  1
0.3998990000  0.2249230000  0.4080100000  1  1  1
0.3383010000  0.2358750000  0.4128930000  1  1  1
0.3386010000  0.2357800000  0.4258400000  1  1  1
0.4008520000  0.2248790000  0.4304260000  1  1  1
0.4122330000  0.2246370000  0.4453580000  1  1  1
0.3409250000  0.2350660000  0.4525040000  1  1  1
0.3413240000  0.2349460000  0.4667340000  1  1  1
0.4141870000  0.2246490000  0.4739090000  1  1  1
0.4035530000  0.2247740000  0.4888070000  1  1  1
0.3419270000  0.2347660000  0.4933270000  1  1  1
0.3413930000  0.2349260000  0.5064410000  1  1  1
0.4029090000  0.2247960000  0.5110970000  1  1  1
0.4134420000  0.2246430000  0.5260170000  1  1  1
0.3415040000  0.2348920000  0.5331570000  1  1  1
0.3411130000  0.2350100000  0.5472700000  1  1  1
0.4127970000  0.2246390000  0.5544850000  1  1  1
0.4015010000  0.2248510000  0.5695320000  1  1  1
0.3400660000  0.2353270000  0.5740430000  1  1  1
0.3395190000  0.2354950000  0.5870460000  1  1  1
0.4001370000  0.2249110000  0.5919120000  1  1  1
0.5559770000  0.2719200000  0.4080010000  1  1  1
0.5096670000  0.2450300000  0.4189140000  1  1  1
0.6426080000  0.4164570000  0.4189360000  1  1  1
0.5563620000  0.2722070000  0.4304400000  1  1  1
0.5484170000  0.2665160000  0.4452810000  1  1  1
0.4848240000  0.2357480000  0.4518350000  1  1  1
0.4854220000  0.2359350000  0.4673910000  1  1  1
0.5500420000  0.2676390000  0.4738820000  1  1  1
0.5584850000  0.2738170000  0.4887200000  1  1  1
0.5132550000  0.2466370000  0.4998960000  1  1  1
0.6427790000  0.4177470000  0.4999020000  1  1  1
0.5582840000  0.2736620000  0.5109620000  1  1  1
0.5497050000  0.2674040000  0.5259140000  1  1  1
0.4848640000  0.2357600000  0.5324830000  1  1  1
0.4850100000  0.2358060000  0.5479510000  1  1  1
0.5492840000  0.2671120000  0.5544530000  1  1  1
0.5571350000  0.2727890000  0.5694400000  1  1  1
0.5103910000  0.2453490000  0.5808950000  1  1  1
0.6426160000  0.4165190000  0.5808670000  1  1  1
0.5562640000  0.2721340000  0.5919220000  1  1  1
0.6291570000  0.3659500000  0.4080100000  1  1  1
0.5990930000  0.3140060000  0.4128930000  1  1  1
0.5992810000  0.3142470000  0.4258400000  1  1  1
0.6294950000  0.3667930000  0.4304260000  1  1  1
0.6332550000  0.3769410000  0.4453580000  1  1  1
0.6007180000  0.3161130000  0.4525040000  1  1  1
0.6009620000  0.3164350000  0.4667340000  1  1  1
0.6338480000  0.3786990000  0.4739090000  1  1  1
0.6304360000  0.3691860000  0.4888070000  1  1  1
0.6013300000  0.3169210000  0.4933270000  1  1  1
0.6010040000  0.3164900000  0.5064410000  1  1  1
0.6302140000  0.3686150000  0.5110970000  1  1  1
0.6336240000  0.3780290000  0.5260170000  1  1  1