%BLOCK LATTICE_CART
  -1.765131169165595   1.765438408966666   1.765438433997503
   1.765438412304746  -1.765131153978643   1.765438418828898
   1.765438418861977   1.765438400355293  -1.765131160595677
%END BLOCK LATTICE_CART
%BLOCK POSITIONS_FRAC
    Mg   0.000000000000000   0.000000000000000   0.000000000000000
%END BLOCK POSITIONS_FRAC
%BLOCK SPECIES_POT
    Mg mg.lda.recpot                                                                          
%END BLOCK SPECIES_POT
