%BLOCK LATTICE_CART
   2.687260919815297  -0.000055729357985  -0.000095771290312
  -0.000055729344819   2.687261878495594  -0.000017818743576
  -0.000095771266551  -0.000017818742913   2.687261879248280
%END BLOCK LATTICE_CART
%BLOCK POSITIONS_FRAC
    Li   0.000000000000000   0.000000000000000   0.000000000000000
%END BLOCK POSITIONS_FRAC
%BLOCK SPECIES_POT
    Li li.lda.recpot                                                                          
%END BLOCK SPECIES_POT
