%BLOCK LATTICE_CART
-2.280218227115979 2.280218227115979 1.2439506506362386
2.280218227115979 -2.280218227115979 1.2439506506362386
2.280218227115979 2.280218227115979 -1.2439506506362386
%END BLOCK LATTICE_CART
%BLOCK POSITIONS_FRAC
Si 0 0 0
Si 0.75 0.25 0.5
%END BLOCK POSITIONS_FRAC
%BLOCK SPECIES_POT
Si si.lda.recpot
%END BLOCK SPECIES_POT
