%BLOCK LATTICE_CART
2.620048142174    0.000000000000    0.000000000000    
-1.310024071087    2.269028250260    0.000000000000    
0.000000000000    0.000000000000    4.172969772549    
%END BLOCK LATTICE_CART
%BLOCK POSITIONS_FRAC
Si    0.000000000000    0.000000000000    0.000000000000
Si    0.666666666667    0.333333333333    0.500000000000
%END BLOCK POSITIONS_FRAC
%BLOCK SPECIES_POT
Si si.gga.recpot
%END BLOCK SPECIES_POT
