%BLOCK LATTICE_CART
   2.805799707700000   0.000000000000000   0.000000000000000
   1.402899853850000   2.429893824799152   0.000000000000000
   0.000000000000003   0.000000000000002  51.359671732885651
%END BLOCK LATTICE_CART
%BLOCK POSITIONS_FRAC
    Al   0.000000000000000   0.000000000000000   0.000013758606613
    Al   0.333333333300000   0.333333333300000   0.045438943430988
    Al   0.666666666700000   0.666666666700000   0.090864826862464
    Al   0.000000000000000   0.000000000000000   0.136286140109421
    Al   0.333333333300000   0.333333333300000   0.181738221981049
    Al   0.000000000000000   0.000000000000000   0.227217743725727
    Al   0.366666666700000   0.366666666700000   0.272835148095199
    Al   0.700000000000000   0.700000000000000   0.318260137061860
    Al   0.033333333300000   0.033333333300000   0.363680843347809
    Al   0.366666666700000   0.366666666700000   0.409103979746942
    Al   0.700000000000000   0.700000000000000   0.454545261396095
    Al   0.366666666700000   0.366666666700000   0.499986571639173
    Al   0.033333333300000   0.033333333300000   0.545409777675967
    Al   0.700000000000000   0.700000000000000   0.590830584446745
    Al   0.366666666700000   0.366666666700000   0.636255682791630
    Al   1.000000000000000   1.000000000000000   0.681873191463758
    Al   0.333333333300000   0.333333333300000   0.727352800372116
    Al   1.000000000000000   1.000000000000000   0.772804942110054
    Al   0.666666666700000   0.666666666700000   0.818226290207934
    Al   0.333333333300000   0.333333333300000   0.863652186353075
    Al   0.000000000000000   0.000000000000000   0.909077374361929
    Al   0.666666666700000   0.666666666700000   0.954545565139317
%END BLOCK POSITIONS_FRAC
%BLOCK SPECIES_POT
    Al al.lda.recpot                                                                          
%END BLOCK SPECIES_POT
%BLOCK ION_OPTIMIZATION
           0           0           1
           0           0           1
           0           0           1
           0           0           1
           0           0           1
           0           0           1
           0           0           1
           0           0           1
           0           0           1
           0           0           1
           0           0           1
           0           0           1
           0           0           1
           0           0           1
           0           0           1
           0           0           1
           0           0           1
           0           0           1
           0           0           1
           0           0           1
           0           0           1
           0           0           1
%END BLOCK ION_OPTIMIZATION
