ATOMIC_SPECIES
Li 6.941 li.gga.psp.1 blps
Mg 24.305 mg.gga.psp blps
Al 26.981 al.gga.psp blps

LATTICE_CONSTANT
1.8897259885789233  // add lattice constant

LATTICE_VECTORS
6.267131000000    0.000000000000    0.000000000000    
0.000000000000    10.949464000000    0.000000000000    
0.000000000000    0.000000000000    5.013850000000    

ATOMIC_POSITIONS
Direct

Li
0.0
2
    0.500000000000    0.167216000000    0.500000000000 1 1 1
    0.000000000000    0.667216000000    0.500000000000 1 1 1
Mg
0.0
12
    0.250669000000    0.416517000000    0.500000000000 1 1 1
    0.749331000000    0.416517000000    0.500000000000 1 1 1
    0.750523000000    0.085389000000    0.000000000000 1 1 1
    0.249477000000    0.085389000000    0.000000000000 1 1 1
    0.000000000000    0.331002000000    0.000000000000 1 1 1
    0.500000000000    0.331817000000    0.000000000000 1 1 1
    0.750669000000    0.916517000000    0.500000000000 1 1 1
    0.249331000000    0.916517000000    0.500000000000 1 1 1
    0.250523000000    0.585389000000    0.000000000000 1 1 1
    0.749477000000    0.585389000000    0.000000000000 1 1 1
    0.500000000000    0.831002000000    0.000000000000 1 1 1
    0.000000000000    0.831817000000    0.000000000000 1 1 1
Al
0.0
2
    0.000000000000    0.166150000000    0.500000000000 1 1 1
    0.500000000000    0.666150000000    0.500000000000 1 1 1
