%BLOCK LATTICE_CART
   0.000511587336174   1.984505758085775   1.984505752896335
   1.984505753867708   0.000511577249217   1.984505758764958
   1.984505750892469   1.984505760979159   0.000511582438808
%END BLOCK LATTICE_CART
%BLOCK POSITIONS_FRAC
    Al   0.000000000000000   0.000000000000000   0.000000000000000
%END BLOCK POSITIONS_FRAC
%BLOCK SPECIES_POT
    Al al.lda.recpot                                                                          
%END BLOCK SPECIES_POT
