%BLOCK LATTICE_CART
2.532577628700    0.000000000000    0.000000000000    
-1.266288814350    2.193276563510    0.000000000000    
0.000000000000    0.000000000000    4.155766276176    
%END BLOCK LATTICE_CART
%BLOCK POSITIONS_FRAC
Al    0.000000000000    0.000000000000    0.000000000000
Al    0.666666666667    0.333333333333    0.500000000000
%END BLOCK POSITIONS_FRAC
%BLOCK SPECIES_POT
Al al.gga.recpot
%END BLOCK SPECIES_POT
