%BLOCK LATTICE_CART
-1.749209451569    1.749209451569    1.749209451569    
1.749209451569    -1.749209451569    1.749209451569    
1.749209451569    1.749209451569    -1.749209451569    
%END BLOCK LATTICE_CART
%BLOCK POSITIONS_FRAC
al    0.000000000000    0.000000000000    0.000000000000
%END BLOCK POSITIONS_FRAC
%BLOCK SPECIES_POT
Al al_HC.lda.recpot
%END BLOCK SPECIES_POT
