%BLOCK LATTICE_CART
   2.805799707700000   0.000000000000000   0.000000000000000
   1.402899853850000   2.429893824799152   0.000000000000000
   0.000000000000003   0.000000000000002  46.343558914852260
%END BLOCK LATTICE_CART
%BLOCK POSITIONS_FRAC
    Al   0.000000000000000   0.000000000000000   0.000277344137210
    Al   0.333333333300000   0.333333333300000   0.049954782250335
    Al   0.666666666700000   0.666666666700000   0.099608379832363
    Al   0.000000000000000   0.000000000000000   0.149245503490152
    Al   0.333333333300000   0.333333333300000   0.199498344180744
    Al   0.966666666700000   0.966666666700000   0.250478628274310
    Al   0.300000000000000   0.300000000000000   0.300668099939769
    Al   0.633333333300000   0.633333333300000   0.350242050732256
    Al   0.966666666700000   0.966666666700000   0.399823425197414
    Al   0.300000000000000   0.300000000000000   0.449999806222216
    Al   0.966666666700000   0.966666666700000   0.500176247595601
    Al   0.633333333300000   0.633333333300000   0.549757726828814
    Al   0.300000000000000   0.300000000000000   0.599331710140179
    Al   0.966666666700000   0.966666666700000   0.649521197729675
    Al   0.333333333300000   0.333333333300000   0.700501544517475
    Al   1.000000000000000   1.000000000000000   0.750754491981883
    Al   0.666666666700000   0.666666666700000   0.800391761483218
    Al   0.333333333300000   0.333333333300000   0.850045438129384
    Al   0.000000000000000   0.000000000000000   0.899722844409737
    Al   0.666666666700000   0.666666666700000   0.950000078590268
%END BLOCK POSITIONS_FRAC
%BLOCK SPECIES_POT
    Al al_HC.lda.recpot                                                                       
%END BLOCK SPECIES_POT
%BLOCK ION_OPTIMIZATION
           0           0           1
           0           0           1
           0           0           1
           0           0           1
           0           0           1
           0           0           1
           0           0           1
           0           0           1
           0           0           1
           0           0           1
           0           0           1
           0           0           1
           0           0           1
           0           0           1
           0           0           1
           0           0           1
           0           0           1
           0           0           1
           0           0           1
           0           0           1
%END BLOCK ION_OPTIMIZATION
