ATOMIC_SPECIES
Al 26.981539 al.lda.lps

LATTICE_CONSTANT
7.50241114482312  // add lattice constant

LATTICE_VECTORS
0.707106781187    0.000000000000    0.000000000000    
0.353553390593    0.612372435696    0.000000000000    
0.000000000000    0.000000000000    11.547005383792515

ATOMIC_POSITIONS
Direct

Al
0.0
20
    1.0346681288E-30  1.0346681288E-30  1.1535772463E-04 1 1 1
    3.3333333330E-01  3.3333333330E-01  4.9808405237E-02 1 1 1
    6.6666666670E-01  6.6666666670E-01  9.9870130179E-02 1 1 1
    9.6983535285E-31  9.6998914205E-31  1.4975828631E-01 1 1 1
    3.3333333330E-01  3.3333333330E-01  1.9975324091E-01 1 1 1
    7.3333333330E-01  7.3333333330E-01  2.5032021430E-01 1 1 1
    6.6666666700E-02  6.6666666700E-02  3.0019543192E-01 1 1 1
    4.0000000000E-01  4.0000000000E-01  3.5024475319E-01 1 1 1
    7.3333333330E-01  7.3333333330E-01  3.9993375440E-01 1 1 1
    6.6666666700E-02  6.6666666700E-02  4.5000000000E-01 1 1 1
    7.3333333330E-01  7.3333333330E-01  5.0006624560E-01 1 1 1
    4.0000000000E-01  4.0000000000E-01  5.4975524681E-01 1 1 1
    6.6666666700E-02  6.6666666700E-02  5.9980456808E-01 1 1 1
    7.3333333330E-01  7.3333333330E-01  6.4967978570E-01 1 1 1
    3.3333333330E-01  3.3333333330E-01  7.0024675909E-01 1 1 1
    9.7000220685E-31  9.7061736365E-31  7.5024171369E-01 1 1 1
    6.6666666670E-01  6.6666666670E-01  8.0012986982E-01 1 1 1
    3.3333333330E-01  3.3333333330E-01  8.5019159476E-01 1 1 1
    1.0342142665E-30  1.0342142665E-30  8.9988464228E-01 1 1 1
    6.6666666670E-01  6.6666666670E-01  9.5000000000E-01 1 1 1
