ATOMIC_SPECIES
O 16 /home/mhchen_pkuhpc/mhchen_cls/lustre2/5_liurenxi/03a01_abacus-lcao-scan/pp/SG15_ONCV_v1.0_upf/O_ONCV_PBE-1.0.upf
C 12 /home/mhchen_pkuhpc/mhchen_cls/lustre2/5_liurenxi/03a01_abacus-lcao-scan/pp/SG15_ONCV_v1.0_upf/C_ONCV_PBE-1.0.upf
N 14 /home/mhchen_pkuhpc/mhchen_cls/lustre2/5_liurenxi/03a01_abacus-lcao-scan/pp/SG15_ONCV_v1.0_upf/N_ONCV_PBE-1.0.upf
H 1 /home/mhchen_pkuhpc/mhchen_cls/lustre2/5_liurenxi/03a01_abacus-lcao-scan/pp/SG15_ONCV_v1.0_upf/H_ONCV_PBE-1.0.upf
O_empty 16 /home/mhchen_pkuhpc/mhchen_cls/lustre2/5_liurenxi/03a01_abacus-lcao-scan/pp/SG15_ONCV_v1.0_upf/O_ONCV_PBE-1.0.upf
C_empty 12 /home/mhchen_pkuhpc/mhchen_cls/lustre2/5_liurenxi/03a01_abacus-lcao-scan/pp/SG15_ONCV_v1.0_upf/C_ONCV_PBE-1.0.upf
N_empty 14 /home/mhchen_pkuhpc/mhchen_cls/lustre2/5_liurenxi/03a01_abacus-lcao-scan/pp/SG15_ONCV_v1.0_upf/N_ONCV_PBE-1.0.upf
H_empty 1 /home/mhchen_pkuhpc/mhchen_cls/lustre2/5_liurenxi/03a01_abacus-lcao-scan/pp/SG15_ONCV_v1.0_upf/H_ONCV_PBE-1.0.upf

LATTICE_CONSTANT
1.8897161646321

LATTICE_VECTORS
20 0 0
0 20 0
0 0 20

NUMERICAL_ORBITAL
/home/mhchen_pkuhpc/mhchen_cls/lustre2/5_liurenxi/03a01_abacus-lcao-scan/orb/Orb_DZP_E100_Full/O/O_gga_10au_100Ry_2s2p1d.orb
/home/mhchen_pkuhpc/mhchen_cls/lustre2/5_liurenxi/03a01_abacus-lcao-scan/orb/Orb_DZP_E100_Full/C/C_gga_10au_100Ry_2s2p1d.orb
/home/mhchen_pkuhpc/mhchen_cls/lustre2/5_liurenxi/03a01_abacus-lcao-scan/orb/Orb_DZP_E100_Full/N/N_gga_10au_100Ry_2s2p1d.orb
/home/mhchen_pkuhpc/mhchen_cls/lustre2/5_liurenxi/03a01_abacus-lcao-scan/orb/Orb_DZP_E100_Full/H/H_gga_10au_100Ry_2s1p.orb
/home/mhchen_pkuhpc/mhchen_cls/lustre2/5_liurenxi/03a01_abacus-lcao-scan/orb/Orb_DZP_E100_Full/O/O_gga_10au_100Ry_2s2p1d.orb
/home/mhchen_pkuhpc/mhchen_cls/lustre2/5_liurenxi/03a01_abacus-lcao-scan/orb/Orb_DZP_E100_Full/C/C_gga_10au_100Ry_2s2p1d.orb
/home/mhchen_pkuhpc/mhchen_cls/lustre2/5_liurenxi/03a01_abacus-lcao-scan/orb/Orb_DZP_E100_Full/N/N_gga_10au_100Ry_2s2p1d.orb
/home/mhchen_pkuhpc/mhchen_cls/lustre2/5_liurenxi/03a01_abacus-lcao-scan/orb/Orb_DZP_E100_Full/H/H_gga_10au_100Ry_2s1p.orb

ATOMIC_POSITIONS
Cartesian    # Cartesian(Unit is LATTICE_CONSTANT)
O
0.0
2
-1.466332 1.012169 0.000000 m 0 0 0 
-0.597223 5.486407 0.000000 m 0 0 0 
C
0.0
4
-0.628146 1.914268 0.000000 m 0 0 0 
1.636729 2.705276 0.000000 m 0 0 0 
1.276904 4.006176 0.000000 m 0 0 0 
-0.128601 4.362155 0.000000 m 0 0 0 
N
0.0
2
0.720509 1.688269 0.000000 m 0 0 0 
-0.977723 3.239643 0.000000 m 0 0 0 
H
0.0
4
2.010350 4.793864 0.000000 m 0 0 0 
1.023251 0.706182 0.000000 m 0 0 0 
-1.970027 3.432385 0.000000 m 0 0 0 
2.669062 2.388342 0.000000 m 0 0 0 
O_empty
0.0
2
1.466332 -1.012169 0.000000 m 0 0 0 
0.597223 -5.486407 0.000000 m 0 0 0 
C_empty
0.0
4
0.628146 -1.914268 0.000000 m 0 0 0 
-1.636729 -2.705276 0.000000 m 0 0 0 
-1.276904 -4.006176 0.000000 m 0 0 0 
0.128601 -4.362155 0.000000 m 0 0 0 
N_empty
0.0
2
-0.720509 -1.688269 0.000000 m 0 0 0 
0.977723 -3.239643 0.000000 m 0 0 0 
H_empty
0.0
4
-2.010350 -4.793864 0.000000 m 0 0 0 
-1.023251 -0.706182 0.000000 m 0 0 0 
1.970027 -3.432385 0.000000 m 0 0 0 
-2.669062 -2.388342 0.000000 m 0 0 0 
