%BLOCK LATTICE_CART
   0.001467542040675   2.107798054835821   2.107801667077920
   2.107799098455779   0.001473078387269   2.107797175205598
   2.107798527645992   2.107792992147345   0.001469421677844
%END BLOCK LATTICE_CART
%BLOCK POSITIONS_FRAC
    Li   0.000000000000000   0.000000000000000   0.000000000000000
%END BLOCK POSITIONS_FRAC
%BLOCK SPECIES_POT
    Li li.lda.recpot                                                                          
%END BLOCK SPECIES_POT
