%BLOCK LATTICE_CART
   2.806843720900000   0.000000000000000   0.000000000000000
   1.403421860450000   2.430797966752238   0.000000000000000
   0.000000000000003   0.000000000000002  50.640593893390687
%END BLOCK LATTICE_CART
%BLOCK POSITIONS_FRAC
    Al   0.000000000000000   0.000000000000000   0.000226045970444
    Al   0.333333333300000   0.333333333300000   0.045308957933569
    Al   0.666666666700000   0.666666666700000   0.090530347074609
    Al   0.000000000000000   0.000000000000000   0.135587931201127
    Al   0.333333333300000   0.333333333300000   0.181371401027625
    Al   0.000000000000000   0.000000000000000   0.226877712284602
    Al   0.600000000000000   0.600000000000000   0.273305817645910
    Al   0.933333333300000   0.933333333300000   0.318729384878891
    Al   0.266666666700000   0.266666666700000   0.363883386163024
    Al   0.600000000000000   0.600000000000000   0.408934139691438
    Al   0.933333333300000   0.933333333300000   0.454545511227360
    Al   0.600000000000000   0.600000000000000   0.500156894006207
    Al   0.266666666700000   0.266666666700000   0.545207667536314
    Al   0.933333333300000   0.933333333300000   0.590361680891832
    Al   0.600000000000000   0.600000000000000   0.635785240919568
    Al   1.000000000000000   1.000000000000000   0.682213300712518
    Al   0.333333333300000   0.333333333300000   0.727719580953206
    Al   0.000000000000000   0.000000000000000   0.773502986188733
    Al   0.666666666700000   0.666666666700000   0.818560501076660
    Al   0.333333333300000   0.333333333300000   0.863781807909965
    Al   0.000000000000000   0.000000000000000   0.908864661149884
    Al   0.666666666700000   0.666666666700000   0.954545339157544
%END BLOCK POSITIONS_FRAC
%BLOCK SPECIES_POT
    Al al.lda.recpot                                                                          
%END BLOCK SPECIES_POT
%BLOCK ION_OPTIMIZATION
           0           0           1
           0           0           1
           0           0           1
           0           0           1
           0           0           1
           0           0           1
           0           0           1
           0           0           1
           0           0           1
           0           0           1
           0           0           1
           0           0           1
           0           0           1
           0           0           1
           0           0           1
           0           0           1
           0           0           1
           0           0           1
           0           0           1
           0           0           1
           0           0           1
           0           0           1
%END BLOCK ION_OPTIMIZATION
