%BLOCK LATTICE_CART
   2.823641870824839   0.000137123489754  -0.000000051964262
  -1.411702216655524   2.445414211796602   0.000000022310803
  -0.000000038580890   0.000000011732212   4.645465608129899
%END BLOCK LATTICE_CART
%BLOCK POSITIONS_FRAC
    Al   0.000000000000000   0.000000000000000   0.000000000000000
    Al   0.666666666667000   0.333333333333000   0.500000000000000
%END BLOCK POSITIONS_FRAC
%BLOCK SPECIES_POT
    Al al.lda.recpot                                                                          
%END BLOCK SPECIES_POT
