ATOMIC_SPECIES
Al 13 al.lda.lps blps

LATTICE_CONSTANT
7.50241114482312  // add lattice constant

LATTICE_VECTORS
3.000000000000    0.000000000000    0.000000000000    
0.000000000000    3.000000000000    0.000000000000    
0.000000000000    0.000000000000    3.000000000000    

ATOMIC_POSITIONS
Direct

Al
0.0
108
0 0 0 1 1 1
0.166666666667	0.166666666667	0.000000000000 1 1 1
0.166666666667	0.000000000000	0.166666666667 1 1 1
0.000000000000	0.166666666667	0.166666666667 1 1 1
0.000000000000	0.000000000000	0.333333333333 1 1 1
0.166666666667	0.166666666667	0.333333333333 1 1 1
0.166666666667	0.000000000000	0.500000000000 1 1 1
0.000000000000	0.166666666667	0.500000000000 1 1 1
0.000000000000	0.000000000000	0.666666666667 1 1 1
0.166666666667	0.166666666667	0.666666666667 1 1 1
0.166666666667	0.000000000000	0.833333333333 1 1 1
0.000000000000	0.166666666667	0.833333333333 1 1 1
0.000000000000	0.333333333333	0.000000000000 1 1 1
0.166666666667	0.500000000000	0.000000000000 1 1 1
0.166666666667	0.333333333333	0.166666666667 1 1 1
0.000000000000	0.500000000000	0.166666666667 1 1 1
0.000000000000	0.333333333333	0.333333333333 1 1 1
0.166666666667	0.500000000000	0.333333333333 1 1 1
0.166666666667	0.333333333333	0.500000000000 1 1 1
0.000000000000	0.500000000000	0.500000000000 1 1 1
0.000000000000	0.333333333333	0.666666666667 1 1 1
0.166666666667	0.500000000000	0.666666666667 1 1 1
0.166666666667	0.333333333333	0.833333333333 1 1 1
0.000000000000	0.500000000000	0.833333333333 1 1 1
0.000000000000	0.666666666667	0.000000000000 1 1 1
0.166666666667	0.833333333333	0.000000000000 1 1 1
0.166666666667	0.666666666667	0.166666666667 1 1 1
0.000000000000	0.833333333333	0.166666666667 1 1 1
0.000000000000	0.666666666667	0.333333333333 1 1 1
0.166666666667	0.833333333333	0.333333333333 1 1 1
0.166666666667	0.666666666667	0.500000000000 1 1 1
0.000000000000	0.833333333333	0.500000000000 1 1 1
0.000000000000	0.666666666667	0.666666666667 1 1 1
0.166666666667	0.833333333333	0.666666666667 1 1 1
0.166666666667	0.666666666667	0.833333333333 1 1 1
0.000000000000	0.833333333333	0.833333333333 1 1 1
0.333333333333	0.000000000000	0.000000000000 1 1 1
0.500000000000	0.166666666667	0.000000000000 1 1 1
0.500000000000	0.000000000000	0.166666666667 1 1 1
0.333333333333	0.166666666667	0.166666666667 1 1 1
0.333333333333	0.000000000000	0.333333333333 1 1 1
0.500000000000	0.166666666667	0.333333333333 1 1 1
0.500000000000	0.000000000000	0.500000000000 1 1 1
0.333333333333	0.166666666667	0.500000000000 1 1 1
0.333333333333	0.000000000000	0.666666666667 1 1 1
0.500000000000	0.166666666667	0.666666666667 1 1 1
0.500000000000	0.000000000000	0.833333333333 1 1 1
0.333333333333	0.166666666667	0.833333333333 1 1 1
0.333333333333	0.333333333333	0.000000000000 1 1 1
0.500000000000	0.500000000000	0.000000000000 1 1 1
0.500000000000	0.333333333333	0.166666666667 1 1 1
0.333333333333	0.500000000000	0.166666666667 1 1 1
0.333333333333	0.333333333333	0.333333333333 1 1 1
0.500000000000	0.500000000000	0.333333333333 1 1 1
0.500000000000	0.333333333333	0.500000000000 1 1 1
0.333333333333	0.500000000000	0.500000000000 1 1 1
0.333333333333	0.333333333333	0.666666666667 1 1 1
0.500000000000	0.500000000000	0.666666666667 1 1 1
0.500000000000	0.333333333333	0.833333333333 1 1 1
0.333333333333	0.500000000000	0.833333333333 1 1 1
0.333333333333	0.666666666667	0.000000000000 1 1 1
0.500000000000	0.833333333333	0.000000000000 1 1 1
0.500000000000	0.666666666667	0.166666666667 1 1 1
0.333333333333	0.833333333333	0.166666666667 1 1 1
0.333333333333	0.666666666667	0.333333333333 1 1 1
0.500000000000	0.833333333333	0.333333333333 1 1 1
0.500000000000	0.666666666667	0.500000000000 1 1 1
0.333333333333	0.833333333333	0.500000000000 1 1 1
0.333333333333	0.666666666667	0.666666666667 1 1 1
0.500000000000	0.833333333333	0.666666666667 1 1 1
0.500000000000	0.666666666667	0.833333333333 1 1 1
0.333333333333	0.833333333333	0.833333333333 1 1 1
0.666666666667	0.000000000000	0.000000000000 1 1 1
0.833333333333	0.166666666667	0.000000000000 1 1 1
0.833333333333	0.000000000000	0.166666666667 1 1 1
0.666666666667	0.166666666667	0.166666666667 1 1 1
0.666666666667	0.000000000000	0.333333333333 1 1 1
0.833333333333	0.166666666667	0.333333333333 1 1 1
0.833333333333	0.000000000000	0.500000000000 1 1 1
0.666666666667	0.166666666667	0.500000000000 1 1 1
0.666666666667	0.000000000000	0.666666666667 1 1 1
0.833333333333	0.166666666667	0.666666666667 1 1 1
0.833333333333	0.000000000000	0.833333333333 1 1 1
0.666666666667	0.166666666667	0.833333333333 1 1 1
0.666666666667	0.333333333333	0.000000000000 1 1 1
0.833333333333	0.500000000000	0.000000000000 1 1 1
0.833333333333	0.333333333333	0.166666666667 1 1 1
0.666666666667	0.500000000000	0.166666666667 1 1 1
0.666666666667	0.333333333333	0.333333333333 1 1 1
0.833333333333	0.500000000000	0.333333333333 1 1 1
0.833333333333	0.333333333333	0.500000000000 1 1 1
0.666666666667	0.500000000000	0.500000000000 1 1 1
0.666666666667	0.333333333333	0.666666666667 1 1 1
0.833333333333	0.500000000000	0.666666666667 1 1 1
0.833333333333	0.333333333333	0.833333333333 1 1 1
0.666666666667	0.500000000000	0.833333333333 1 1 1
0.666666666667	0.666666666667	0.000000000000 1 1 1
0.833333333333	0.833333333333	0.000000000000 1 1 1
0.833333333333	0.666666666667	0.166666666667 1 1 1
0.666666666667	0.833333333333	0.166666666667 1 1 1
0.666666666667	0.666666666667	0.333333333333 1 1 1
0.833333333333	0.833333333333	0.333333333333 1 1 1
0.833333333333	0.666666666667	0.500000000000 1 1 1
0.666666666667	0.833333333333	0.500000000000 1 1 1
0.666666666667	0.666666666667	0.666666666667 1 1 1
0.833333333333	0.833333333333	0.666666666667 1 1 1
0.833333333333	0.666666666667	0.833333333333 1 1 1
0.666666666667	0.833333333333	0.833333333333 1 1 1
