%BLOCK LATTICE_CART
   2.926038997032903   0.000000004464389   0.000000013205813
   0.000000004464389   2.926038997698891  -0.000000004803260
   0.000000013205813  -0.000000004803260   2.926038997699256
%END BLOCK LATTICE_CART
%BLOCK POSITIONS_FRAC
    Mg   0.000000000000000   0.000000000000000   0.000000000000000
%END BLOCK POSITIONS_FRAC
%BLOCK SPECIES_POT
    Mg mg.lda.recpot                                                                          
%END BLOCK SPECIES_POT
