%BLOCK LATTICE_CART
3.052390550000    0.000000000000    0.000000000000    
0.000000000000    5.025685280000    0.000000000000    
0.000000000000    0.000000000000    5.380484780000    
%END BLOCK LATTICE_CART
%BLOCK POSITIONS_FRAC
Li    0.500000000000    0.750000000000    0.665621270000
Li    0.500000000000    0.250000000000    0.334378730000
Mg    0.000000000000    0.750000000000    0.171270230000
Mg    0.000000000000    0.250000000000    0.828729770000
%END BLOCK POSITIONS_FRAC
%BLOCK SPECIES_POT
Li li.gga.recpot
Mg mg.gga.recpot
%END BLOCK SPECIES_POT
