%BLOCK LATTICE_CART
   2.812387583300000   0.000000000000000   0.000000000000000
   1.406193791650000   2.435599092425724   0.000000000000000
   0.000000000000003   0.000000000000002  50.582644837205343
%END BLOCK LATTICE_CART
%BLOCK POSITIONS_FRAC
    Al   0.000000000000000   0.000000000000000   0.000156889267480
    Al   0.333333333300000   0.333333333300000   0.045468247436740
    Al   0.666666666700000   0.666666666700000   0.090812490633070
    Al   0.000000000000000   0.000000000000000   0.136104276377341
    Al   0.333333333300000   0.333333333300000   0.181701435292572
    Al   0.000000000000000   0.000000000000000   0.227256836366112
    Al   0.666666666700000   0.666666666700000   0.272802981817869
    Al   0.000000000000000   0.000000000000000   0.318402703066434
    Al   0.333333333300000   0.333333333300000   0.363692795673005
    Al   0.666666666700000   0.666666666700000   0.408975838908101
    Al   0.000000000000000   0.000000000000000   0.454545106913323
    Al   0.666666666700000   0.666666666700000   0.500114424091448
    Al   0.333333333300000   0.333333333300000   0.545397593846365
    Al   0.000000000000000   0.000000000000000   0.590687865162253
    Al   0.666666666700000   0.666666666700000   0.636287778079583
    Al   1.000000000000000   1.000000000000000   0.681834099432810
    Al   0.333333333300000   0.333333333300000   0.727389666071996
    Al   0.000000000000000   0.000000000000000   0.772986942100575
    Al   0.666666666700000   0.666666666700000   0.818278799868716
    Al   0.333333333300000   0.333333333300000   0.863623087473561
    Al   0.000000000000000   0.000000000000000   0.908934457532891
    Al   0.666666666700000   0.666666666700000   0.954545672609968
%END BLOCK POSITIONS_FRAC
%BLOCK SPECIES_POT
    Al al.lda.recpot                                                                          
%END BLOCK SPECIES_POT
%BLOCK ION_OPTIMIZATION
           0           0           1
           0           0           1
           0           0           1
           0           0           1
           0           0           1
           0           0           1
           0           0           1
           0           0           1
           0           0           1
           0           0           1
           0           0           1
           0           0           1
           0           0           1
           0           0           1
           0           0           1
           0           0           1
           0           0           1
           0           0           1
           0           0           1
           0           0           1
           0           0           1
           0           0           1
%END BLOCK ION_OPTIMIZATION
