%BLOCK LATTICE_CART
2.846231009148    0.000000000000    0.000000000000    
-1.423115504574    2.464908358961    0.000000000000    
0.000000000000    0.000000000000    4.682629332995    
%END BLOCK LATTICE_CART
%BLOCK POSITIONS_FRAC
Al    0.000000000000    0.000000000000    0.000000000000
Al    0.666666666667    0.333333333333    0.500000000000
%END BLOCK POSITIONS_FRAC
%BLOCK SPECIES_POT
Al al.lda.recpot
%END BLOCK SPECIES_POT
