%BLOCK LATTICE_CART
   2.805799707700000   0.000000000000000   0.000000000000000
   1.402899853850000   2.429893824799152   0.000000000000000
   0.000000000000003   0.000000000000002  46.674887173019016
%END BLOCK LATTICE_CART
%BLOCK POSITIONS_FRAC
    Al   1.000000000000000   1.000000000000000   0.000013829708818
    Al   0.333333333300000   0.333333333300000   0.050000284728476
    Al   0.666666666700000   0.666666666700000   0.099999832494337
    Al   0.000000000000000   0.000000000000000   0.149986165887657
    Al   0.333333333300000   0.333333333300000   0.199986218878966
    Al   1.000000000000000   1.000000000000000   0.250013834700599
    Al   0.333333333300000   0.333333333300000   0.300013911330595
    Al   0.666666666700000   0.666666666700000   0.350000012024425
    Al   0.000000000000000   0.000000000000000   0.399986186241228
    Al   0.333333333300000   0.333333333300000   0.449999982242341
    Al   1.000000000000000   1.000000000000000   0.500013810408828
    Al   0.666666666700000   0.666666666700000   0.550000018732301
    Al   0.333333333300000   0.333333333300000   0.599986121715927
    Al   0.000000000000000   0.000000000000000   0.649986161790789
    Al   0.333333333300000   0.333333333300000   0.700013746225164
    Al   1.000000000000000   1.000000000000000   0.750013830596448
    Al   0.666666666700000   0.666666666700000   0.800000198067524
    Al   0.333333333300000   0.333333333300000   0.849999746290330
    Al   0.000000000000000   0.000000000000000   0.899986166648970
    Al   0.666666666700000   0.666666666700000   0.949999981670102
%END BLOCK POSITIONS_FRAC
%BLOCK SPECIES_POT
    Al al.lda.recpot                                                                          
%END BLOCK SPECIES_POT
%BLOCK ION_OPTIMIZATION
           0           0           1
           0           0           1
           0           0           1
           0           0           1
           0           0           1
           0           0           1
           0           0           1
           0           0           1
           0           0           1
           0           0           1
           0           0           1
           0           0           1
           0           0           1
           0           0           1
           0           0           1
           0           0           1
           0           0           1
           0           0           1
           0           0           1
           0           0           1
%END BLOCK ION_OPTIMIZATION
