%BLOCK LATTICE_CART
  -1.731280576423583   1.730909529102499   1.730909678116205
   1.730909593331157  -1.731280492424796   1.730909593944490
   1.730909636216591   1.730909487816215  -1.731280534868181
%END BLOCK LATTICE_CART
%BLOCK POSITIONS_FRAC
    Mg   0.000000000000000   0.000000000000000   0.000000000000000
%END BLOCK POSITIONS_FRAC
%BLOCK SPECIES_POT
    Mg mg.lda.recpot                                                                          
%END BLOCK SPECIES_POT
