ATOMIC_SPECIES
Li 3 li.gga.psp.1 blps

LATTICE_CONSTANT
6.364153196356974  // add lattice constant

LATTICE_VECTORS
-0.500000000000    0.500000000000    0.500000000000    
0.500000000000    -0.500000000000    0.500000000000    
0.500000000000    0.500000000000    -0.500000000000    

ATOMIC_POSITIONS
Direct

Li
0.0
1
    0.000000000000    0.000000000000    0.000000000000 1 1 1
