ATOMIC_SPECIES
In 114.8180 in.gga.psp blps
Sb 121.7600 sb.gga.psp blps

LATTICE_CONSTANT
1.8897259886

LATTICE_VECTORS
        4.6409291249        0.0000000000        0.0000000000
        0.0000000000        8.0356956610        0.0000000000
        0.0000000000        0.0000000000        7.6460030155

ATOMIC_POSITIONS
Direct

In #label
0.0000   #magnetism
4 #number of atoms
        0.0000000000        0.6680643813        0.4880223825 m 1 1 1
        0.0000000000        0.3319356187        0.9880223825 m 1 1 1
        0.5000000000        0.1680612965        0.4880186603 m 1 1 1
        0.5000000000        0.8319387035        0.9880186603 m 1 1 1

Sb #label
0.0000   #magnetism
4 #number of atoms
        0.0000000000        0.6654982945        0.8619813771 m 1 1 1
        0.0000000000        0.3345017055        0.3619813771 m 1 1 1
        0.5000000000        0.1654965771        0.8619775802 m 1 1 1
        0.5000000000        0.8345034229        0.3619775802 m 1 1 1
