ATOMIC_SPECIES
In 114.8180 in.gga.psp blps
Sb 121.7600 sb.gga.psp blps

LATTICE_CONSTANT
1.8897259886

LATTICE_VECTORS
        4.6430773303        0.0000000000        0.0000000000
        0.0000000000        8.0398267622        0.0000000000
        0.0000000000        0.0000000000        7.6500330764

ATOMIC_POSITIONS
Direct

In #label
0.0000   #magnetism
4 #number of atoms
        0.0000000000        0.6680570804        0.4880052998 m 1 1 1
        0.0000000000        0.3319429196        0.9880052998 m 1 1 1
        0.5000000000        0.1680535790        0.4880010752 m 1 1 1
        0.5000000000        0.8319464210        0.9880010752 m 1 1 1

Sb #label
0.0000   #magnetism
4 #number of atoms
        0.0000000000        0.6654978394        0.8619989672 m 1 1 1
        0.0000000000        0.3345021606        0.3619989672 m 1 1 1
        0.5000000000        0.1654958902        0.8619946578 m 1 1 1
        0.5000000000        0.8345041098        0.3619946578 m 1 1 1
