%BLOCK LATTICE_CART
   2.805799707700000   0.000000000000000   0.000000000000000
   1.402899853850000   2.429893824799152   0.000000000000000
   0.000000000000003   0.000000000000002  46.308291764266336
%END BLOCK LATTICE_CART
%BLOCK POSITIONS_FRAC
    Al   0.000000000000000   0.000000000000000   0.000363951489040
    Al   0.333333333300000   0.333333333300000   0.050149080887753
    Al   0.666666666700000   0.666666666700000   0.099953994462985
    Al   0.000000000000000   0.000000000000000   0.149773763156893
    Al   0.333333333300000   0.333333333300000   0.199711297652130
    Al   0.733333333300000   0.733333333300000   0.250279152359728
    Al   0.066666666700000   0.066666666700000   0.300150394968606
    Al   0.400000000000000   0.400000000000000   0.349933936756842
    Al   0.733333333300000   0.733333333300000   0.399678024311548
    Al   0.066666666700000   0.066666666700000   0.449999967275626
    Al   0.733333333300000   0.733333333300000   0.500321952080565
    Al   0.400000000000000   0.400000000000000   0.550066109991365
    Al   0.066666666700000   0.066666666700000   0.599849643681635
    Al   0.733333333300000   0.733333333300000   0.649720807465201
    Al   0.333333333300000   0.333333333300000   0.700288625376693
    Al   1.000000000000000   1.000000000000000   0.750226192868895
    Al   0.666666666700000   0.666666666700000   0.800046035376372
    Al   0.333333333300000   0.333333333300000   0.849850944656512
    Al   0.000000000000000   0.000000000000000   0.899635997832499
    Al   0.666666666700000   0.666666666700000   0.949999953304771
%END BLOCK POSITIONS_FRAC
%BLOCK SPECIES_POT
    Al al_HC.lda.recpot                                                                       
%END BLOCK SPECIES_POT
%BLOCK ION_OPTIMIZATION
           0           0           1
           0           0           1
           0           0           1
           0           0           1
           0           0           1
           0           0           1
           0           0           1
           0           0           1
           0           0           1
           0           0           1
           0           0           1
           0           0           1
           0           0           1
           0           0           1
           0           0           1
           0           0           1
           0           0           1
           0           0           1
           0           0           1
           0           0           1
%END BLOCK ION_OPTIMIZATION
