%BLOCK LATTICE_CART
   4.319014382374561   0.000000423046922   0.000000677003724
   0.000000423046933   4.319014854097394   0.000000047002930
   0.000000677003748   0.000000047002928   4.319014854102219
%END BLOCK LATTICE_CART
%BLOCK POSITIONS_FRAC
    Al   0.000000000000000   0.000000000000000   0.000000000000000
    Mg   0.000000000000000   0.500000000000000   0.500000000000000
    Mg   0.500000000000000   0.500000000000000   0.000000000000000
    Mg   0.500000000000000   0.000000000000000   0.500000000000000
%END BLOCK POSITIONS_FRAC
%BLOCK SPECIES_POT
    Al al.lda.recpot                                                                          
    Mg mg.lda.recpot                                                                          
%END BLOCK SPECIES_POT
