ATOMIC_SPECIES
H 1.00 /home/qiou/water_cluster/H_ONCV_PBE-1.0.upf
O 1.00 /home/qiou/water_cluster/O_ONCV_PBE-1.0.upf

LATTICE_CONSTANT
1.8897259886

LATTICE_VECTORS
21.16708996 0.0 0.0 
0.0 21.16708996 0.0 
0.0 0.0 21.16708996 

NUMERICAL_ORBITAL
/home/qiou/water_cluster/H_gga_10au_100Ry_3s2p.orb
/home/qiou/water_cluster/O_gga_10au_100Ry_3s3p2d.orb

ATOMIC_POSITIONS
Cartesian    # Cartesian(Unit is LATTICE_CONSTANT)

H
0.0
12
0.589965 -0.720789 1.503428 
2.026756 -0.696488 2.126741 
1.095772 1.403156 0.649540 
1.092258 1.529889 -0.849408 
2.380676 -0.919251 -1.851586 
1.821572 -0.631544 -0.436121 
-1.005916 1.625724 -0.031994 
-2.516801 1.971719 -0.066999 
-0.220096 -1.038480 -1.562838 
-1.559178 -0.378664 -1.235377 
-1.097352 -1.450732 0.498715 
-1.529916 -0.320705 1.388689 

O
0.0
6
1.519957 -0.391505 1.369232 
0.729439 1.955476 -0.060179 
1.659463 -0.484158 -1.388254 
-1.906281 1.232137 -0.003704 
-1.144366 -1.246745 -1.352774 
-1.020955 -1.144143 1.425992
