%BLOCK LATTICE_CART
   4.085519116576527  -0.000000038805066  -0.000000154378160
  -0.000000038805067   4.085519539550254   0.000000003588452
  -0.000000154378163   0.000000003588452   4.085519539549114
%END BLOCK LATTICE_CART
%BLOCK POSITIONS_FRAC
    Mg   0.000000000000000   0.000000000000000   0.000000000000000
    Al   0.000000000000000   0.500000000000000   0.500000000000000
    Al   0.500000000000000   0.500000000000000   0.000000000000000
    Al   0.500000000000000   0.000000000000000   0.500000000000000
%END BLOCK POSITIONS_FRAC
%BLOCK SPECIES_POT
    Mg mg.lda.recpot                                                                          
    Al al.lda.recpot                                                                          
%END BLOCK SPECIES_POT
