%BLOCK LATTICE_CART
2.815624471796    0.000000000000    0.000000000000    
-1.407812235898    2.438402320092    0.000000000000    
0.000000000000    0.000000000000    4.620881445058    
%END BLOCK LATTICE_CART
%BLOCK POSITIONS_FRAC
Al    0.000000000000    0.000000000000    0.000000000000
Al    0.666666666667    0.333333333333    0.500000000000
%END BLOCK POSITIONS_FRAC
%BLOCK SPECIES_POT
Al al.lda.recpot
%END BLOCK SPECIES_POT
