%BLOCK LATTICE_CART
2.833725690758    0.000000000000    0.000000000000    
0.000000000000    4.007493303915    0.000000000000    
0.000000000000    0.000000000000    19.836079835304    
%END BLOCK LATTICE_CART
%BLOCK POSITIONS_FRAC
Al    0.000000000000    0.000000000000    0.000000000000
Al    0.500000000000    0.500000000000    0.071428571429
Al    0.000000000000    0.000000000000    0.142857142857
Al    0.500000000000    0.500000000000    0.214285714286
Al    0.000000000000    0.000000000000    0.285714285714
Al    0.500000000000    0.500000000000    0.357142857143
Al    0.000000000000    0.000000000000    0.428571428571
%END BLOCK POSITIONS_FRAC
%BLOCK SPECIES_POT
Al al.lda.recpot
%END BLOCK SPECIES_POT
