%BLOCK LATTICE_ABC
2.8074061011    2.8074061011    50.4292246220    90.0000000000    90.0000000000    60.0000000000    
%END BLOCK LATTICE_ABC
%BLOCK POSITIONS_FRAC
Al    0.0000000000    0.0000000000    0.0000000000
Al    0.3333333333    0.3333333333    0.0454545455
Al    0.6666666667    0.6666666667    0.0909090909
Al    0.0000000000    0.0000000000    0.1363636364
Al    0.3333333333    0.3333333333    0.1818181818
Al    0.0000000000    0.0000000000    0.2272727273
Al    0.6000000000    0.6000000000    0.2727272727
Al    0.9333333333    0.9333333333    0.3181818182
Al    0.2666666667    0.2666666667    0.3636363636
Al    0.6000000000    0.6000000000    0.4090909091
Al    0.9333333333    0.9333333333    0.4545454545
Al    0.6000000000    0.6000000000    0.5000000000
Al    0.2666666667    0.2666666667    0.5454545455
Al    0.9333333333    0.9333333333    0.5909090909
Al    0.6000000000    0.6000000000    0.6363636364
Al    0.0000000000    0.0000000000    0.6818181818
Al    0.3333333333    0.3333333333    0.7272727273
Al    0.0000000000    0.0000000000    0.7727272727
Al    0.6666666667    0.6666666667    0.8181818182
Al    0.3333333333    0.3333333333    0.8636363636
Al    0.0000000000    0.0000000000    0.9090909091
Al    0.6666666667    0.6666666667    0.9545454545
%END BLOCK POSITIONS_FRAC
%BLOCK ION_OPTIMIZATION
0 0 1
0 0 1
0 0 1
0 0 1
0 0 1
0 0 1
0 0 1
0 0 1
0 0 1
0 0 1
0 0 1
0 0 1
0 0 1
0 0 1
0 0 1
0 0 1
0 0 1
0 0 1
0 0 1
0 0 1
0 0 1
0 0 1
%END BLOCK ION_OPTIMIZATION
%BLOCK SPECIES_POT
Al al.lda.recpot
%END BLOCK SPECIES_POT
