%BLOCK LATTICE_CART
   2.805799707700000   0.000000000000000   0.000000000000000
   1.402899853850000   2.429893824799152   0.000000000000000
   0.000000000000003   0.000000000000002  51.066665106019343
%END BLOCK LATTICE_CART
%BLOCK POSITIONS_FRAC
    Al   0.000000000000000   0.000000000000000   0.000131675179597
    Al   0.333333333300000   0.333333333300000   0.045148413716368
    Al   0.666666666700000   0.666666666700000   0.090183280647569
    Al   0.000000000000000   0.000000000000000   0.135233784965813
    Al   0.333333333300000   0.333333333300000   0.180850698924878
    Al   0.000000000000000   0.000000000000000   0.226691049050453
    Al   0.500000000000000   0.500000000000000   0.273563971116159
    Al   0.833333333300000   0.833333333300000   0.318872157507559
    Al   0.166666666700000   0.166666666700000   0.363911595337333
    Al   0.500000000000000   0.500000000000000   0.408956595088759
    Al   0.833333333300000   0.833333333300000   0.454546468483734
    Al   0.500000000000000   0.500000000000000   0.500136265365864
    Al   0.166666666700000   0.166666666700000   0.545181063293328
    Al   0.833333333300000   0.833333333300000   0.590220171195669
    Al   0.500000000000000   0.500000000000000   0.635527904679116
    Al   0.000000000000000   0.000000000000000   0.682400307632310
    Al   0.333333333300000   0.333333333300000   0.728240083840898
    Al   1.000000000000000   1.000000000000000   0.773856425433826
    Al   0.666666666700000   0.666666666700000   0.818906430926942
    Al   0.333333333300000   0.333333333300000   0.863940843082740
    Al   0.000000000000000   0.000000000000000   0.908957280269501
    Al   0.666666666700000   0.666666666700000   0.954544416192487
%END BLOCK POSITIONS_FRAC
%BLOCK SPECIES_POT
    Al al_HC.lda.recpot                                                                       
%END BLOCK SPECIES_POT
%BLOCK ION_OPTIMIZATION
           0           0           1
           0           0           1
           0           0           1
           0           0           1
           0           0           1
           0           0           1
           0           0           1
           0           0           1
           0           0           1
           0           0           1
           0           0           1
           0           0           1
           0           0           1
           0           0           1
           0           0           1
           0           0           1
           0           0           1
           0           0           1
           0           0           1
           0           0           1
           0           0           1
           0           0           1
%END BLOCK ION_OPTIMIZATION
