%BLOCK LATTICE_CART
   4.369345084886834   0.000000805555166   0.000001334936649
   0.000000805555170   4.369345631876123   0.000000158541977
   0.000001334936655   0.000000158541977   4.369345631880290
%END BLOCK LATTICE_CART
%BLOCK POSITIONS_FRAC
    Al   0.000000000000000   0.000000000000000   0.000000000000000
    Mg   0.000000000000000   0.500000000000000   0.500000000000000
    Mg   0.500000000000000   0.500000000000000   0.000000000000000
    Mg   0.500000000000000   0.000000000000000   0.500000000000000
%END BLOCK POSITIONS_FRAC
%BLOCK SPECIES_POT
    Al al.lda.recpot                                                                          
    Mg mg.lda.recpot                                                                          
%END BLOCK SPECIES_POT
