%BLOCK LATTICE_CART
   2.805799707700000   0.000000000000000   0.000000000000000
   1.402899853850000   2.429893824799152   0.000000000000000
   0.000000000000003   0.000000000000002  45.954775597611977
%END BLOCK LATTICE_CART
%BLOCK POSITIONS_FRAC
    Al   0.000000000000000   0.000000000000000   0.000081251867413
    Al   0.333333333300000   0.333333333300000   0.049910986305132
    Al   0.666666666700000   0.666666666700000   0.099673330175916
    Al   0.000000000000000   0.000000000000000   0.149470064758439
    Al   0.333333333300000   0.333333333300000   0.199542691984436
    Al   0.933333333300000   0.933333333300000   0.250448988631631
    Al   0.266666666700000   0.266666666700000   0.300507280534651
    Al   0.600000000000000   0.600000000000000   0.350235879227408
    Al   0.933333333300000   0.933333333300000   0.399975644370064
    Al   0.266666666700000   0.266666666700000   0.450000002930697
    Al   0.933333333300000   0.933333333300000   0.500024388790141
    Al   0.600000000000000   0.600000000000000   0.549764176576839
    Al   0.266666666700000   0.266666666700000   0.599492758796073
    Al   0.933333333300000   0.933333333300000   0.649551011241753
    Al   0.333333333300000   0.333333333300000   0.700457283991384
    Al   1.000000000000000   1.000000000000000   0.750529927376376
    Al   0.666666666700000   0.666666666700000   0.800326697742691
    Al   0.333333333300000   0.333333333300000   0.850089054937608
    Al   0.000000000000000   0.000000000000000   0.899918762015341
    Al   0.666666666700000   0.666666666700000   0.949999992873663
%END BLOCK POSITIONS_FRAC
%BLOCK SPECIES_POT
    Al al_HC.lda.recpot                                                                       
%END BLOCK SPECIES_POT
%BLOCK ION_OPTIMIZATION
           0           0           1
           0           0           1
           0           0           1
           0           0           1
           0           0           1
           0           0           1
           0           0           1
           0           0           1
           0           0           1
           0           0           1
           0           0           1
           0           0           1
           0           0           1
           0           0           1
           0           0           1
           0           0           1
           0           0           1
           0           0           1
           0           0           1
           0           0           1
%END BLOCK ION_OPTIMIZATION
