%BLOCK LATTICE_CART
   2.700270546948706  -0.000057900685473  -0.000099467913847
  -0.000057900672012   2.700271532661509  -0.000018502954615
  -0.000099467888976  -0.000018502953740   2.700271533515049
%END BLOCK LATTICE_CART
%BLOCK POSITIONS_FRAC
    Li   0.000000000000000   0.000000000000000   0.000000000000000
%END BLOCK POSITIONS_FRAC
%BLOCK SPECIES_POT
    Li li.lda.recpot                                                                          
%END BLOCK SPECIES_POT
