%BLOCK LATTICE_CART
0.000000000000    3.152258492585    3.152258492585    
3.152258492585    0.000000000000    3.152258492585    
3.152258492585    3.152258492585    0.000000000000    
%END BLOCK LATTICE_CART
%BLOCK POSITIONS_FRAC
Ga    0.000000000000    0.000000000000    0.000000000000
Sb    0.250000000000    0.250000000000    0.250000000000
%END BLOCK POSITIONS_FRAC
%BLOCK SPECIES_POT
Ga ga.gga.recpot
Sb sb.gga.recpot
%END BLOCK SPECIES_POT
