%BLOCK LATTICE_CART
3.340249000000    0.000000000000    0.000000000000    
0.000000000000    4.912625000000    0.000000000000    
0.000000000000    0.000000000000    4.933959000000    
%END BLOCK LATTICE_CART
%BLOCK POSITIONS_FRAC
Li    0.000000000000    0.750000000000    0.257117000000
Li    0.000000000000    0.250000000000    0.742883000000
Mg    0.500000000000    0.250000000000    0.243873000000
Mg    0.500000000000    0.750000000000    0.756127000000
%END BLOCK POSITIONS_FRAC
%BLOCK SPECIES_POT
Li li.gga.recpot
Mg mg.gga.recpot
%END BLOCK SPECIES_POT
