%BLOCK LATTICE_CART
2.729216814764    0.000000000000    0.000000000000    
-1.364608407382    2.363571094021    0.000000000000    
0.000000000000    0.000000000000    4.346843513072    
%END BLOCK LATTICE_CART
%BLOCK POSITIONS_FRAC
Si    0.000000000000    0.000000000000    0.000000000000
Si    0.666666666667    0.333333333333    0.500000000000
%END BLOCK POSITIONS_FRAC
%BLOCK SPECIES_POT
Si si.gga.recpot
%END BLOCK SPECIES_POT
