ATOMIC_SPECIES
Ga  69.7230 ga.gga.psp blps
As  74.9220 as.gga.psp blps

LATTICE_CONSTANT
1.8897259886

LATTICE_VECTORS
        2.0071001220       -3.4763993871        0.0000000000
        2.0071001220        3.4763993871       -0.0000000000
        0.0000000000       -0.0000000000        6.6222677335

ATOMIC_POSITIONS
Direct

Ga #label
0.0000   #magnetism
2 #number of atoms
        0.3333333333        0.6666666667        0.9999211048 m 1 1 1
        0.6666666667        0.3333333333        0.4999211048 m 1 1 1

As #label
0.0000   #magnetism
2 #number of atoms
        0.3333333333        0.6666666667        0.3740788952 m 1 1 1
        0.6666666667        0.3333333333        0.8740788952 m 1 1 1
