%BLOCK LATTICE_CART
   2.805799707700000   0.000000000000000   0.000000000000000
   1.402899853850000   2.429893824799152   0.000000000000000
   0.000000000000003   0.000000000000002  48.969685012681374
%END BLOCK LATTICE_CART
%BLOCK POSITIONS_FRAC
    Al   0.000000000000000   0.000000000000000   0.000000000000000
    Al   0.333333333300000   0.333333333300000   0.047619047600000
    Al   0.666666666700000   0.666666666700000   0.095238095200000
    Al   0.000000000000000   0.000000000000000   0.142857142900000
    Al   0.333333333300000   0.333333333300000   0.190476190500000
    Al   0.666666666700000   0.666666666700000   0.238095238100000
    Al   0.000000000000000   0.000000000000000   0.285714285700000
    Al   0.333333333300000   0.333333333300000   0.333333333300000
    Al   0.666666666700000   0.666666666700000   0.380952381000000
    Al   0.000000000000000   0.000000000000000   0.428571428600000
    Al   0.333333333300000   0.333333333300000   0.476190476200000
    Al   0.666666666700000   0.666666666700000   0.523809523800000
    Al   0.000000000000000   0.000000000000000   0.571428571400000
    Al   0.333333333300000   0.333333333300000   0.619047619000000
    Al   0.666666666700000   0.666666666700000   0.666666666700000
    Al   0.000000000000000   0.000000000000000   0.714285714300000
    Al   0.333333333300000   0.333333333300000   0.761904761900000
    Al   0.666666666700000   0.666666666700000   0.809523809500000
    Al   0.000000000000000   0.000000000000000   0.857142857100000
    Al   0.333333333300000   0.333333333300000   0.904761904800000
    Al   0.666666666700000   0.666666666700000   0.952380952400000
%END BLOCK POSITIONS_FRAC
%BLOCK SPECIES_POT
    Al al.lda.recpot                                                                          
%END BLOCK SPECIES_POT
%BLOCK ION_OPTIMIZATION
           0           0           1
           0           0           1
           0           0           1
           0           0           1
           0           0           1
           0           0           1
           0           0           1
           0           0           1
           0           0           1
           0           0           1
           0           0           1
           0           0           1
           0           0           1
           0           0           1
           0           0           1
           0           0           1
           0           0           1
           0           0           1
           0           0           1
           0           0           1
           0           0           1
%END BLOCK ION_OPTIMIZATION
