%BLOCK LATTICE_ABC
2.8057997077    2.8057997077    48.1094432310    90.0000000000    90.0000000000    60.0000000000    
%END BLOCK LATTICE_ABC
%BLOCK POSITIONS_FRAC
Al    0.0000000000    0.0000000000    0.0000000000
Al    0.3333333333    0.3333333333    0.0476190476
Al    0.6666666667    0.6666666667    0.0952380952
Al    0.0000000000    0.0000000000    0.1428571429
Al    0.3333333333    0.3333333333    0.1904761905
Al    0.6666666667    0.6666666667    0.2380952381
Al    0.0000000000    0.0000000000    0.2857142857
Al    0.3333333333    0.3333333333    0.3333333333
Al    0.6666666667    0.6666666667    0.3809523810
Al    0.0000000000    0.0000000000    0.4285714286
Al    0.3333333333    0.3333333333    0.4761904762
Al    0.6666666667    0.6666666667    0.5238095238
Al    0.0000000000    0.0000000000    0.5714285714
Al    0.3333333333    0.3333333333    0.6190476190
Al    0.6666666667    0.6666666667    0.6666666667
Al    0.0000000000    0.0000000000    0.7142857143
Al    0.3333333333    0.3333333333    0.7619047619
Al    0.6666666667    0.6666666667    0.8095238095
Al    0.0000000000    0.0000000000    0.8571428571
Al    0.3333333333    0.3333333333    0.9047619048
Al    0.6666666667    0.6666666667    0.9523809524
%END BLOCK POSITIONS_FRAC
%BLOCK ION_OPTIMIZATION
0 0 1
0 0 1
0 0 1
0 0 1
0 0 1
0 0 1
0 0 1
0 0 1
0 0 1
0 0 1
0 0 1
0 0 1
0 0 1
0 0 1
0 0 1
0 0 1
0 0 1
0 0 1
0 0 1
0 0 1
0 0 1
%END BLOCK ION_OPTIMIZATION
%BLOCK SPECIES_POT
Al al.lda.recpot
%END BLOCK SPECIES_POT
