%BLOCK LATTICE_CART
-2.5652455055054766 2.5652455055054766 1.3994444819657685
2.5652455055054766 -2.5652455055054766 1.3994444819657685
2.5652455055054766 2.5652455055054766 -1.3994444819657685
%END BLOCK LATTICE_CART
%BLOCK POSITIONS_FRAC
Si 0 0 0
Si 0.75 0.25 0.5
%END BLOCK POSITIONS_FRAC
%BLOCK SPECIES_POT
Si si.lda.recpot
%END BLOCK SPECIES_POT
