%BLOCK LATTICE_CART
-2.13770458792123 2.13770458792123 1.1662037349714736
2.13770458792123 -2.13770458792123 1.1662037349714736
2.13770458792123 2.13770458792123 -1.1662037349714736
%END BLOCK LATTICE_CART
%BLOCK POSITIONS_FRAC
Si 0 0 0
Si 0.75 0.25 0.5
%END BLOCK POSITIONS_FRAC
%BLOCK SPECIES_POT
Si si.lda.recpot
%END BLOCK SPECIES_POT
