ATOMIC_SPECIES
Al 26.981539 al.lda.lps

LATTICE_CONSTANT
7.50241114482312  // add lattice constant

LATTICE_VECTORS
0.707106781187    0.000000000000    0.000000000000    
0.353553390593    0.612372435696    0.000000000000    
0.000000000000    0.000000000000    12.701705922171765

ATOMIC_POSITIONS
Direct

Al
0.0
22
    -1.8672612195E-30 -1.9339634532E-30  1.1797631066E-04 1 1 1
     3.3333333330E-01  3.3333333330E-01  4.5358706185E-02 1 1 1
     6.6666666670E-01  6.6666666670E-01  9.0843133389E-02 1 1 1
    -1.8539661211E-30 -1.9206683548E-30  1.3601542936E-01 1 1 1
     3.3333333330E-01  3.3333333330E-01  1.8148494198E-01 1 1 1
    -1.8535850563E-30 -1.9202872900E-30  2.2697290925E-01 1 1 1
     4.3333333330E-01  4.3333333330E-01  2.7320639888E-01 1 1 1
     7.6666666670E-01  7.6666666670E-01  3.1840931867E-01 1 1 1
     1.0000000000E-01  1.0000000000E-01  3.6382251196E-01 1 1 1
     4.3333333330E-01  4.3333333330E-01  4.0901990273E-01 1 1 1
     7.6666666670E-01  7.6666666670E-01  4.5454545455E-01 1 1 1
     4.3333333330E-01  4.3333333330E-01  5.0007100637E-01 1 1 1
     1.0000000000E-01  1.0000000000E-01  5.4526839714E-01 1 1 1
     7.6666666670E-01  7.6666666670E-01  5.9068159043E-01 1 1 1
     4.3333333330E-01  4.3333333330E-01  6.3588451022E-01 1 1 1
    -1.8535850563E-30 -1.9202872900E-30  6.8211799985E-01 1 1 1
     3.3333333330E-01  3.3333333330E-01  7.2760596712E-01 1 1 1
    -1.8539661211E-30 -1.9206683548E-30  7.7307547974E-01 1 1 1
     6.6666666670E-01  6.6666666670E-01  8.1824777571E-01 1 1 1
     3.3333333330E-01  3.3333333330E-01  8.6373220291E-01 1 1 1
    -1.8672612195E-30 -1.9339634532E-30  9.0897293279E-01 1 1 1
     6.6666666670E-01  6.6666666670E-01  9.5454545455E-01 1 1 1
