%BLOCK LATTICE_CART
   4.322874541623090   0.000000419406328   0.000000669889174
   0.000000419406341   4.322875033792544   0.000000050528139
   0.000000669889201   0.000000050528137   4.322875033798315
%END BLOCK LATTICE_CART
%BLOCK POSITIONS_FRAC
    Al   0.000000000000000   0.000000000000000   0.000000000000000
    Mg   0.000000000000000   0.500000000000000   0.500000000000000
    Mg   0.500000000000000   0.500000000000000   0.000000000000000
    Mg   0.500000000000000   0.000000000000000   0.500000000000000
%END BLOCK POSITIONS_FRAC
%BLOCK SPECIES_POT
    Al al.lda.recpot                                                                          
    Mg mg.lda.recpot                                                                          
%END BLOCK SPECIES_POT
