%BLOCK LATTICE_CART
2.924363053122    -5.065145387784    0.000000000000    
2.924363053122    5.065145387784    0.000000000000    
0.000000000000    0.000000000000    4.666289450000    
%END BLOCK LATTICE_CART
%BLOCK POSITIONS_FRAC
Mg    0.333333333333    0.666666666667    0.750000000000
Mg    0.666666666667    0.333333333333    0.250000000000
Al    0.322379830000    0.161189915000    0.750000000000
Al    0.838810085000    0.161189915000    0.750000000000
Al    0.838810085000    0.677620170000    0.750000000000
Al    0.161189915000    0.838810085000    0.250000000000
Al    0.161189915000    0.322379830000    0.250000000000
Al    0.677620170000    0.838810085000    0.250000000000
%END BLOCK POSITIONS_FRAC
%BLOCK SPECIES_POT
Mg mg.gga.recpot
Al al.gga.recpot
%END BLOCK SPECIES_POT
