%BLOCK LATTICE_CART
3.059845795261    0.000000000000    0.000000000000    
-1.529922897631    2.649904190359    0.000000000000    
0.000000000000    0.000000000000    4.968756993901    
%END BLOCK LATTICE_CART
%BLOCK POSITIONS_FRAC
Mg    0.000000000000    0.000000000000    0.000000000000
Mg    0.666666666667    0.333333333333    0.500000000000
%END BLOCK POSITIONS_FRAC
%BLOCK SPECIES_POT
Mg mg.lda.recpot
%END BLOCK SPECIES_POT
