ATOMIC_SPECIES
Al 27 al.lda.lps

LATTICE_CONSTANT
7.50241114482

LATTICE_VECTORS
0.707106781187 0 0 #latvec1
0.353553390593 0.612372435696 0 #latvec2
0 0 11.5470053838 #latvec3

ATOMIC_POSITIONS
Direct

Al #label
0 #magnetism
20 #number of atoms
0  0  0.000105427011429  m  0  0  1
0.333333333332  0.333333333332  0.0497530185009  m  0  0  1
0.666666666668  0.666666666668  0.0997961969313  m  0  0  1
0  0  0.149815832316  m  0  0  1
0.333333333332  0.333333333332  0.199905509297  m  0  0  1
0.666666666668  0.666666666668  0.250004924103  m  0  0  1
0  0  0.300052176795  m  0  0  1
0.333333333332  0.333333333332  0.350145403572  m  0  0  1
0.666666666668  0.666666666668  0.39985085888  m  0  0  1
0  0  0.449819007332  m  0  0  1
0.666666666668  0.666666666668  0.499803588493  m  0  0  1
0.333333333332  0.333333333332  0.549571719261  m  0  0  1
0  0  0.599759243038  m  0  0  1
0.666666666668  0.666666666668  0.649899778432  m  0  0  1
0.333333333332  0.333333333332  0.700084736956  m  0  0  1
0  0  0.75026318395  m  0  0  1
0.666666666668  0.666666666668  0.800381144031  m  0  0  1
0.333333333332  0.333333333332  0.850528347774  m  0  0  1
0  0  0.900261153406  m  0  0  1
0.666666666668  0.666666666668  0.950198749921  m  0  0  1
