%BLOCK LATTICE_CART
  -1.590834843608225   1.591168604084031   1.591168583223305
   1.591168536182870  -1.590834821603272   1.591168561190369
   1.591168531551528   1.591168577419753  -1.590834816965174
%END BLOCK LATTICE_CART
%BLOCK POSITIONS_FRAC
    Al   0.000000000000000   0.000000000000000   0.000000000000000
%END BLOCK POSITIONS_FRAC
%BLOCK SPECIES_POT
    Al al.lda.recpot                                                                          
%END BLOCK SPECIES_POT
