%BLOCK LATTICE_CART
4.448272466876    0.000000000000    0.000000000000    
-0.006388076568    5.362804161118    0.000000000000    
-2.189181431996    -2.505972131766    8.991965333091    
%END BLOCK LATTICE_CART
%BLOCK POSITIONS_FRAC
Li    0.231328140000    0.841431620000    0.465033920000
Li    0.308437330000    0.474828990000    0.615581310000
Li    0.691562670000    0.525171010000    0.384418690000
Li    0.543168270000    0.324780520000    0.087600980000
Li    0.768671860000    0.158568380000    0.534966080000
Li    0.456831730000    0.675219480000    0.912399020000
Li    0.000000000000    0.000000000000    0.000000000000
Li    0.914357080000    0.359080670000    0.830040720000
Li    0.085642920000    0.640919330000    0.169959280000
Al    0.614394290000    0.935100920000    0.229000790000
Al    0.385605710000    0.064899080000    0.770999210000
Al    0.149930270000    0.214628580000    0.301033450000
Al    0.850069730000    0.785371420000    0.698966550000
%END BLOCK POSITIONS_FRAC
%BLOCK SPECIES_POT
Li li.gga.recpot
Al al.gga.recpot
%END BLOCK SPECIES_POT
