%BLOCK LATTICE_CART
   4.369704638932157   0.000000602403862   0.000001003792356
   0.000000602403866   4.369705066667545   0.000000114331920
   0.000001003792362   0.000000114331920   4.369705066670080
%END BLOCK LATTICE_CART
%BLOCK POSITIONS_FRAC
    Al   0.000000000000000   0.000000000000000   0.000000000000000
    Mg   0.000000000000000   0.500000000000000   0.500000000000000
    Mg   0.500000000000000   0.500000000000000   0.000000000000000
    Mg   0.500000000000000   0.000000000000000   0.500000000000000
%END BLOCK POSITIONS_FRAC
%BLOCK SPECIES_POT
    Al al.lda.recpot                                                                          
    Mg mg.lda.recpot                                                                          
%END BLOCK SPECIES_POT
