ATOMIC_SPECIES
Mg 24.305 mg.gga.psp blps
Al 26.981 al.gga.psp blps

LATTICE_CONSTANT
1.8897259885789233  // add lattice constant

LATTICE_VECTORS
1.496918061641    -2.592738137529    0.000000000000    
1.496918061641    2.592738137529    0.000000000000    
0.000000000000    0.000000000000    4.851482990000    

ATOMIC_POSITIONS
Direct

Mg
0.0
1
    0.000000000000    0.000000000000    0.500000000000 1 1 1
Al
0.0
1
    0.333333333333    0.666666666667    0.000000000000 1 1 1
