%BLOCK LATTICE_CART
   2.818422901300274   0.003583137520324  -0.000000030389392
  -1.406108380903967   2.442617431819304   0.000000002667466
  -0.000000019356565   0.000000001386379   4.622681808477217
%END BLOCK LATTICE_CART
%BLOCK POSITIONS_FRAC
    Al   0.000000000000000   0.000000000000000   0.000000000000000
    Al   0.666666666667000   0.333333333333000   0.500000000000000
%END BLOCK POSITIONS_FRAC
%BLOCK SPECIES_POT
    Al al.lda.recpot                                                                          
%END BLOCK SPECIES_POT
