%BLOCK LATTICE_CART
   0.000171617587269   1.984866553089353   1.984866548289150
   1.984866548454556   0.000171607950796   1.984866553290780
   1.984866545707134   1.984866555343560   0.000171612751048
%END BLOCK LATTICE_CART
%BLOCK POSITIONS_FRAC
    Al   0.000000000000000   0.000000000000000   0.000000000000000
%END BLOCK POSITIONS_FRAC
%BLOCK SPECIES_POT
    Al al.lda.recpot                                                                          
%END BLOCK SPECIES_POT
