%BLOCK LATTICE_CART
   2.694598831508712  -0.000056945772077  -0.000097853257883
  -0.000056945758705   2.694599808421924  -0.000018201257786
  -0.000097853233407  -0.000018201257000   2.694599809148786
%END BLOCK LATTICE_CART
%BLOCK POSITIONS_FRAC
    Li   0.000000000000000   0.000000000000000   0.000000000000000
%END BLOCK POSITIONS_FRAC
%BLOCK SPECIES_POT
    Li li.lda.recpot                                                                          
%END BLOCK SPECIES_POT
