ATOMIC_SPECIES
Al 13 Al.pz-vbc.UPF upf201
Mg 12 mg.lda.lps blps

LATTICE_CONSTANT
8.15038818874

LATTICE_VECTORS
1 0 0 #latvec1
0 1 0 #latvec2
0 0 1 #latvec3

ATOMIC_POSITIONS
Direct

Al #label
0 #magnetism
1 #number of atoms
0  0  0  m  1  1  1

Mg #label
0 #magnetism
3 #number of atoms
0  0.5  0.5  m  1  1  1
0.5  0.5  0  m  1  1  1
0.5  0  0.5  m  1  1  1
