%BLOCK LATTICE_CART
  -1.753875092171118   1.754022833476243   1.754022835382896
   1.754022835224710  -1.753875092283472   1.754022835495251
   1.754022835628675   1.754022833992562  -1.753875092687437
%END BLOCK LATTICE_CART
%BLOCK POSITIONS_FRAC
    Mg   0.000000000000000   0.000000000000000   0.000000000000000
%END BLOCK POSITIONS_FRAC
%BLOCK SPECIES_POT
    Mg mg.lda.recpot                                                                          
%END BLOCK SPECIES_POT
