ATOMIC_SPECIES
In 114.818 in.gga.psp blps
P 30.974 p.gga.psp blps

LATTICE_CONSTANT
1.8519314688073452  // add lattice constant

LATTICE_VECTORS
2.084055326647    -3.609689711537    0.000000000000    
2.084055326647    3.609689711537    0.000000000000    
0.000000000000    0.000000000000    6.839990070000    

ATOMIC_POSITIONS
Direct

In
0.0
2
    0.666666666667    0.333333333333    0.500196250000 1 1 1
    0.333333333333    0.666666666667    0.000196250000 1 1 1
P
0.0
2
    0.666666666667    0.333333333333    0.874804750000 1 1 1
    0.333333333333    0.666666666667    0.374804750000 1 1 1
