%BLOCK LATTICE_CART
26.671968410990    0.000000000000    0.000000000000    
0.000000000000    26.671968410990    0.000000000000    
0.000000000000    0.000000000000    26.671968410990    
%END BLOCK LATTICE_CART
%BLOCK POSITIONS_FRAC
Si    0.100000000000    0.100000000000    0.000000000000
Si    0.100000000000    0.000000000000    0.100000000000
Si    0.000000000000    0.100000000000    0.100000000000
Si    0.050000000000    0.050000000000    0.050000000000
Si    0.150000000000    0.150000000000    0.050000000000
Si    0.150000000000    0.050000000000    0.150000000000
Si    0.050000000000    0.150000000000    0.150000000000
Si    0.000000000000    0.000000000000    0.200000000000
Si    0.100000000000    0.100000000000    0.200000000000
Si    0.100000000000    0.000000000000    0.300000000000
Si    0.000000000000    0.100000000000    0.300000000000
Si    0.050000000000    0.050000000000    0.250000000000
Si    0.150000000000    0.150000000000    0.250000000000
Si    0.150000000000    0.050000000000    0.350000000000
Si    0.050000000000    0.150000000000    0.350000000000
Si    0.000000000000    0.000000000000    0.400000000000
Si    0.100000000000    0.100000000000    0.400000000000
Si    0.100000000000    0.000000000000    0.500000000000
Si    0.000000000000    0.100000000000    0.500000000000
Si    0.050000000000    0.050000000000    0.450000000000
Si    0.150000000000    0.150000000000    0.450000000000
Si    0.150000000000    0.050000000000    0.550000000000
Si    0.050000000000    0.150000000000    0.550000000000
Si    0.000000000000    0.000000000000    0.600000000000
Si    0.100000000000    0.100000000000    0.600000000000
Si    0.100000000000    0.000000000000    0.700000000000
Si    0.000000000000    0.100000000000    0.700000000000
Si    0.050000000000    0.050000000000    0.650000000000
Si    0.150000000000    0.150000000000    0.650000000000
Si    0.150000000000    0.050000000000    0.750000000000
Si    0.050000000000    0.150000000000    0.750000000000
Si    0.000000000000    0.000000000000    0.800000000000
Si    0.100000000000    0.100000000000    0.800000000000
Si    0.100000000000    0.000000000000    0.900000000000
Si    0.000000000000    0.100000000000    0.900000000000
Si    0.050000000000    0.050000000000    0.850000000000
Si    0.150000000000    0.150000000000    0.850000000000
Si    0.150000000000    0.050000000000    0.950000000000
Si    0.050000000000    0.150000000000    0.950000000000
Si    0.000000000000    0.200000000000    0.000000000000
Si    0.100000000000    0.300000000000    0.000000000000
Si    0.100000000000    0.200000000000    0.100000000000
Si    0.000000000000    0.300000000000    0.100000000000
Si    0.050000000000    0.250000000000    0.050000000000
Si    0.150000000000    0.350000000000    0.050000000000
Si    0.150000000000    0.250000000000    0.150000000000
Si    0.050000000000    0.350000000000    0.150000000000
Si    0.000000000000    0.200000000000    0.200000000000
Si    0.100000000000    0.300000000000    0.200000000000
Si    0.100000000000    0.200000000000    0.300000000000
Si    0.000000000000    0.300000000000    0.300000000000
Si    0.050000000000    0.250000000000    0.250000000000
Si    0.150000000000    0.350000000000    0.250000000000
Si    0.150000000000    0.250000000000    0.350000000000
Si    0.050000000000    0.350000000000    0.350000000000
Si    0.000000000000    0.200000000000    0.400000000000
Si    0.100000000000    0.300000000000    0.400000000000
Si    0.100000000000    0.200000000000    0.500000000000
Si    0.000000000000    0.300000000000    0.500000000000
Si    0.050000000000    0.250000000000    0.450000000000
Si    0.150000000000    0.350000000000    0.450000000000
Si    0.150000000000    0.250000000000    0.550000000000
Si    0.050000000000    0.350000000000    0.550000000000
Si    0.000000000000    0.200000000000    0.600000000000
Si    0.100000000000    0.300000000000    0.600000000000
Si    0.100000000000    0.200000000000    0.700000000000
Si    0.000000000000    0.300000000000    0.700000000000
Si    0.050000000000    0.250000000000    0.650000000000
Si    0.150000000000    0.350000000000    0.650000000000
Si    0.150000000000    0.250000000000    0.750000000000
Si    0.050000000000    0.350000000000    0.750000000000
Si    0.000000000000    0.200000000000    0.800000000000
Si    0.100000000000    0.300000000000    0.800000000000
Si    0.100000000000    0.200000000000    0.900000000000
Si    0.000000000000    0.300000000000    0.900000000000
Si    0.050000000000    0.250000000000    0.850000000000
Si    0.150000000000    0.350000000000    0.850000000000
Si    0.150000000000    0.250000000000    0.950000000000
Si    0.050000000000    0.350000000000    0.950000000000
Si    0.000000000000    0.400000000000    0.000000000000
Si    0.100000000000    0.500000000000    0.000000000000
Si    0.100000000000    0.400000000000    0.100000000000
Si    0.000000000000    0.500000000000    0.100000000000
Si    0.050000000000    0.450000000000    0.050000000000
Si    0.150000000000    0.550000000000    0.050000000000
Si    0.150000000000    0.450000000000    0.150000000000
Si    0.050000000000    0.550000000000    0.150000000000
Si    0.000000000000    0.400000000000    0.200000000000
Si    0.100000000000    0.500000000000    0.200000000000
Si    0.100000000000    0.400000000000    0.300000000000
Si    0.000000000000    0.500000000000    0.300000000000
Si    0.050000000000    0.450000000000    0.250000000000
Si    0.150000000000    0.550000000000    0.250000000000
Si    0.150000000000    0.450000000000    0.350000000000
Si    0.050000000000    0.550000000000    0.350000000000
Si    0.000000000000    0.400000000000    0.400000000000
Si    0.100000000000    0.500000000000    0.400000000000
Si    0.100000000000    0.400000000000    0.500000000000
Si    0.000000000000    0.500000000000    0.500000000000
Si    0.050000000000    0.450000000000    0.450000000000
Si    0.150000000000    0.550000000000    0.450000000000
Si    0.150000000000    0.450000000000    0.550000000000
Si    0.050000000000    0.550000000000    0.550000000000
Si    0.000000000000    0.400000000000    0.600000000000
Si    0.100000000000    0.500000000000    0.600000000000
Si    0.100000000000    0.400000000000    0.700000000000
Si    0.000000000000    0.500000000000    0.700000000000
Si    0.050000000000    0.450000000000    0.650000000000
Si    0.150000000000    0.550000000000    0.650000000000
Si    0.150000000000    0.450000000000    0.750000000000
Si    0.050000000000    0.550000000000    0.750000000000
Si    0.000000000000    0.400000000000    0.800000000000
Si    0.100000000000    0.500000000000    0.800000000000
Si    0.100000000000    0.400000000000    0.900000000000
Si    0.000000000000    0.500000000000    0.900000000000
Si    0.050000000000    0.450000000000    0.850000000000
Si    0.150000000000    0.550000000000    0.850000000000
Si    0.150000000000    0.450000000000    0.950000000000
Si    0.050000000000    0.550000000000    0.950000000000
Si    0.000000000000    0.600000000000    0.000000000000
Si    0.100000000000    0.700000000000    0.000000000000
Si    0.100000000000    0.600000000000    0.100000000000
Si    0.000000000000    0.700000000000    0.100000000000
Si    0.050000000000    0.650000000000    0.050000000000
Si    0.150000000000    0.750000000000    0.050000000000
Si    0.150000000000    0.650000000000    0.150000000000
Si    0.050000000000    0.750000000000    0.150000000000
Si    0.000000000000    0.600000000000    0.200000000000
Si    0.100000000000    0.700000000000    0.200000000000
Si    0.100000000000    0.600000000000    0.300000000000
Si    0.000000000000    0.700000000000    0.300000000000
Si    0.050000000000    0.650000000000    0.250000000000
Si    0.150000000000    0.750000000000    0.250000000000
Si    0.150000000000    0.650000000000    0.350000000000
Si    0.050000000000    0.750000000000    0.350000000000
Si    0.000000000000    0.600000000000    0.400000000000
Si    0.100000000000    0.700000000000    0.400000000000
Si    0.100000000000    0.600000000000    0.500000000000
Si    0.000000000000    0.700000000000    0.500000000000
Si    0.050000000000    0.650000000000    0.450000000000
Si    0.150000000000    0.750000000000    0.450000000000
Si    0.150000000000    0.650000000000    0.550000000000
Si    0.050000000000    0.750000000000    0.550000000000
Si    0.000000000000    0.600000000000    0.600000000000
Si    0.100000000000    0.700000000000    0.600000000000
Si    0.100000000000    0.600000000000    0.700000000000
Si    0.000000000000    0.700000000000    0.700000000000
Si    0.050000000000    0.650000000000    0.650000000000
Si    0.150000000000    0.750000000000    0.650000000000
Si    0.150000000000    0.650000000000    0.750000000000
Si    0.050000000000    0.750000000000    0.750000000000
Si    0.000000000000    0.600000000000    0.800000000000
Si    0.100000000000    0.700000000000    0.800000000000
Si    0.100000000000    0.600000000000    0.900000000000
Si    0.000000000000    0.700000000000    0.900000000000
Si    0.050000000000    0.650000000000    0.850000000000
Si    0.150000000000    0.750000000000    0.850000000000
Si    0.150000000000    0.650000000000    0.950000000000
Si    0.050000000000    0.750000000000    0.950000000000
Si    0.000000000000    0.800000000000    0.000000000000
Si    0.100000000000    0.900000000000    0.000000000000
Si    0.100000000000    0.800000000000    0.100000000000
Si    0.000000000000    0.900000000000    0.100000000000
Si    0.050000000000    0.850000000000    0.050000000000
Si    0.150000000000    0.950000000000    0.050000000000
Si    0.150000000000    0.850000000000    0.150000000000
Si    0.050000000000    0.950000000000    0.150000000000
Si    0.000000000000    0.800000000000    0.200000000000
Si    0.100000000000    0.900000000000    0.200000000000
Si    0.100000000000    0.800000000000    0.300000000000
Si    0.000000000000    0.900000000000    0.300000000000
Si    0.050000000000    0.850000000000    0.250000000000
Si    0.150000000000    0.950000000000    0.250000000000
Si    0.150000000000    0.850000000000    0.350000000000
Si    0.050000000000    0.950000000000    0.350000000000
Si    0.000000000000    0.800000000000    0.400000000000
Si    0.100000000000    0.900000000000    0.400000000000
Si    0.100000000000    0.800000000000    0.500000000000
Si    0.000000000000    0.900000000000    0.500000000000
Si    0.050000000000    0.850000000000    0.450000000000
Si    0.150000000000    0.950000000000    0.450000000000
Si    0.150000000000    0.850000000000    0.550000000000
Si    0.050000000000    0.950000000000    0.550000000000
Si    0.000000000000    0.800000000000    0.600000000000
Si    0.100000000000    0.900000000000    0.600000000000
Si    0.100000000000    0.800000000000    0.700000000000
Si    0.000000000000    0.900000000000    0.700000000000
Si    0.050000000000    0.850000000000    0.650000000000
Si    0.150000000000    0.950000000000    0.650000000000
Si    0.150000000000    0.850000000000    0.750000000000
Si    0.050000000000    0.950000000000    0.750000000000
Si    0.000000000000    0.800000000000    0.800000000000
Si    0.100000000000    0.900000000000    0.800000000000
Si    0.100000000000    0.800000000000    0.900000000000
Si    0.000000000000    0.900000000000    0.900000000000
Si    0.050000000000    0.850000000000    0.850000000000
Si    0.150000000000    0.950000000000    0.850000000000
Si    0.150000000000    0.850000000000    0.950000000000
Si    0.050000000000    0.950000000000    0.950000000000
Si    0.200000000000    0.000000000000    0.000000000000
Si    0.300000000000    0.100000000000    0.000000000000
Si    0.300000000000    0.000000000000    0.100000000000
Si    0.200000000000    0.100000000000    0.100000000000
Si    0.250000000000    0.050000000000    0.050000000000
Si    0.350000000000    0.150000000000    0.050000000000
Si    0.350000000000    0.050000000000    0.150000000000
Si    0.250000000000    0.150000000000    0.150000000000
Si    0.200000000000    0.000000000000    0.200000000000
Si    0.300000000000    0.100000000000    0.200000000000
Si    0.300000000000    0.000000000000    0.300000000000
Si    0.200000000000    0.100000000000    0.300000000000
Si    0.250000000000    0.050000000000    0.250000000000
Si    0.350000000000    0.150000000000    0.250000000000
Si    0.350000000000    0.050000000000    0.350000000000
Si    0.250000000000    0.150000000000    0.350000000000
Si    0.200000000000    0.000000000000    0.400000000000
Si    0.300000000000    0.100000000000    0.400000000000
Si    0.300000000000    0.000000000000    0.500000000000
Si    0.200000000000    0.100000000000    0.500000000000
Si    0.250000000000    0.050000000000    0.450000000000
Si    0.350000000000    0.150000000000    0.450000000000
Si    0.350000000000    0.050000000000    0.550000000000
Si    0.250000000000    0.150000000000    0.550000000000
Si    0.200000000000    0.000000000000    0.600000000000
Si    0.300000000000    0.100000000000    0.600000000000
Si    0.300000000000    0.000000000000    0.700000000000
Si    0.200000000000    0.100000000000    0.700000000000
Si    0.250000000000    0.050000000000    0.650000000000
Si    0.350000000000    0.150000000000    0.650000000000
Si    0.350000000000    0.050000000000    0.750000000000
Si    0.250000000000    0.150000000000    0.750000000000
Si    0.200000000000    0.000000000000    0.800000000000
Si    0.300000000000    0.100000000000    0.800000000000
Si    0.300000000000    0.000000000000    0.900000000000
Si    0.200000000000    0.100000000000    0.900000000000
Si    0.250000000000    0.050000000000    0.850000000000
Si    0.350000000000    0.150000000000    0.850000000000
Si    0.350000000000    0.050000000000    0.950000000000
Si    0.250000000000    0.150000000000    0.950000000000
Si    0.200000000000    0.200000000000    0.000000000000
Si    0.300000000000    0.300000000000    0.000000000000
Si    0.300000000000    0.200000000000    0.100000000000
Si    0.200000000000    0.300000000000    0.100000000000
Si    0.250000000000    0.250000000000    0.050000000000
Si    0.350000000000    0.350000000000    0.050000000000
Si    0.350000000000    0.250000000000    0.150000000000
Si    0.250000000000    0.350000000000    0.150000000000
Si    0.200000000000    0.200000000000    0.200000000000
Si    0.300000000000    0.300000000000    0.200000000000
Si    0.300000000000    0.200000000000    0.300000000000
Si    0.200000000000    0.300000000000    0.300000000000
Si    0.250000000000    0.250000000000    0.250000000000
Si    0.350000000000    0.350000000000    0.250000000000
Si    0.350000000000    0.250000000000    0.350000000000
Si    0.250000000000    0.350000000000    0.350000000000
Si    0.200000000000    0.200000000000    0.400000000000
Si    0.300000000000    0.300000000000    0.400000000000
Si    0.300000000000    0.200000000000    0.500000000000
Si    0.200000000000    0.300000000000    0.500000000000
Si    0.250000000000    0.250000000000    0.450000000000
Si    0.350000000000    0.350000000000    0.450000000000
Si    0.350000000000    0.250000000000    0.550000000000
Si    0.250000000000    0.350000000000    0.550000000000
Si    0.200000000000    0.200000000000    0.600000000000
Si    0.300000000000    0.300000000000    0.600000000000
Si    0.300000000000    0.200000000000    0.700000000000
Si    0.200000000000    0.300000000000    0.700000000000
Si    0.250000000000    0.250000000000    0.650000000000
Si    0.350000000000    0.350000000000    0.650000000000
Si    0.350000000000    0.250000000000    0.750000000000
Si    0.250000000000    0.350000000000    0.750000000000
Si    0.200000000000    0.200000000000    0.800000000000
Si    0.300000000000    0.300000000000    0.800000000000
Si    0.300000000000    0.200000000000    0.900000000000
Si    0.200000000000    0.300000000000    0.900000000000
Si    0.250000000000    0.250000000000    0.850000000000
Si    0.350000000000    0.350000000000    0.850000000000
Si    0.350000000000    0.250000000000    0.950000000000
Si    0.250000000000    0.350000000000    0.950000000000
Si    0.200000000000    0.400000000000    0.000000000000
Si    0.300000000000    0.500000000000    0.000000000000
Si    0.300000000000    0.400000000000    0.100000000000
Si    0.200000000000    0.500000000000    0.100000000000
Si    0.250000000000    0.450000000000    0.050000000000
Si    0.350000000000    0.550000000000    0.050000000000
Si    0.350000000000    0.450000000000    0.150000000000
Si    0.250000000000    0.550000000000    0.150000000000
Si    0.200000000000    0.400000000000    0.200000000000
Si    0.300000000000    0.500000000000    0.200000000000
Si    0.300000000000    0.400000000000    0.300000000000
Si    0.200000000000    0.500000000000    0.300000000000
Si    0.250000000000    0.450000000000    0.250000000000
Si    0.350000000000    0.550000000000    0.250000000000
Si    0.350000000000    0.450000000000    0.350000000000
Si    0.250000000000    0.550000000000    0.350000000000
Si    0.200000000000    0.400000000000    0.400000000000
Si    0.300000000000    0.500000000000    0.400000000000
Si    0.300000000000    0.400000000000    0.500000000000
Si    0.200000000000    0.500000000000    0.500000000000
Si    0.250000000000    0.450000000000    0.450000000000
Si    0.350000000000    0.550000000000    0.450000000000
Si    0.350000000000    0.450000000000    0.550000000000
Si    0.250000000000    0.550000000000    0.550000000000
Si    0.200000000000    0.400000000000    0.600000000000
Si    0.300000000000    0.500000000000    0.600000000000
Si    0.300000000000    0.400000000000    0.700000000000
Si    0.200000000000    0.500000000000    0.700000000000
Si    0.250000000000    0.450000000000    0.650000000000
Si    0.350000000000    0.550000000000    0.650000000000
Si    0.350000000000    0.450000000000    0.750000000000
Si    0.250000000000    0.550000000000    0.750000000000
Si    0.200000000000    0.400000000000    0.800000000000
Si    0.300000000000    0.500000000000    0.800000000000
Si    0.300000000000    0.400000000000    0.900000000000
Si    0.200000000000    0.500000000000    0.900000000000
Si    0.250000000000    0.450000000000    0.850000000000
Si    0.350000000000    0.550000000000    0.850000000000
Si    0.350000000000    0.450000000000    0.950000000000
Si    0.250000000000    0.550000000000    0.950000000000
Si    0.200000000000    0.600000000000    0.000000000000
Si    0.300000000000    0.700000000000    0.000000000000
Si    0.300000000000    0.600000000000    0.100000000000
Si    0.200000000000    0.700000000000    0.100000000000
Si    0.250000000000    0.650000000000    0.050000000000
Si    0.350000000000    0.750000000000    0.050000000000
Si    0.350000000000    0.650000000000    0.150000000000
Si    0.250000000000    0.750000000000    0.150000000000
Si    0.200000000000    0.600000000000    0.200000000000
Si    0.300000000000    0.700000000000    0.200000000000
Si    0.300000000000    0.600000000000    0.300000000000
Si    0.200000000000    0.700000000000    0.300000000000
Si    0.250000000000    0.650000000000    0.250000000000
Si    0.350000000000    0.750000000000    0.250000000000
Si    0.350000000000    0.650000000000    0.350000000000
Si    0.250000000000    0.750000000000    0.350000000000
Si    0.200000000000    0.600000000000    0.400000000000
Si    0.300000000000    0.700000000000    0.400000000000
Si    0.300000000000    0.600000000000    0.500000000000
Si    0.200000000000    0.700000000000    0.500000000000
Si    0.250000000000    0.650000000000    0.450000000000
Si    0.350000000000    0.750000000000    0.450000000000
Si    0.350000000000    0.650000000000    0.550000000000
Si    0.250000000000    0.750000000000    0.550000000000
Si    0.200000000000    0.600000000000    0.600000000000
Si    0.300000000000    0.700000000000    0.600000000000
Si    0.300000000000    0.600000000000    0.700000000000
Si    0.200000000000    0.700000000000    0.700000000000
Si    0.250000000000    0.650000000000    0.650000000000
Si    0.350000000000    0.750000000000    0.650000000000
Si    0.350000000000    0.650000000000    0.750000000000
Si    0.250000000000    0.750000000000    0.750000000000
Si    0.200000000000    0.600000000000    0.800000000000
Si    0.300000000000    0.700000000000    0.800000000000
Si    0.300000000000    0.600000000000    0.900000000000
Si    0.200000000000    0.700000000000    0.900000000000
Si    0.250000000000    0.650000000000    0.850000000000
Si    0.350000000000    0.750000000000    0.850000000000
Si    0.350000000000    0.650000000000    0.950000000000
Si    0.250000000000    0.750000000000    0.950000000000
Si    0.200000000000    0.800000000000    0.000000000000
Si    0.300000000000    0.900000000000    0.000000000000
Si    0.300000000000    0.800000000000    0.100000000000
Si    0.200000000000    0.900000000000    0.100000000000
Si    0.250000000000    0.850000000000    0.050000000000
Si    0.350000000000    0.950000000000    0.050000000000
Si    0.350000000000    0.850000000000    0.150000000000
Si    0.250000000000    0.950000000000    0.150000000000
Si    0.200000000000    0.800000000000    0.200000000000
Si    0.300000000000    0.900000000000    0.200000000000
Si    0.300000000000    0.800000000000    0.300000000000
Si    0.200000000000    0.900000000000    0.300000000000
Si    0.250000000000    0.850000000000    0.250000000000
Si    0.350000000000    0.950000000000    0.250000000000
Si    0.350000000000    0.850000000000    0.350000000000
Si    0.250000000000    0.950000000000    0.350000000000
Si    0.200000000000    0.800000000000    0.400000000000
Si    0.300000000000    0.900000000000    0.400000000000
Si    0.300000000000    0.800000000000    0.500000000000
Si    0.200000000000    0.900000000000    0.500000000000
Si    0.250000000000    0.850000000000    0.450000000000
Si    0.350000000000    0.950000000000    0.450000000000
Si    0.350000000000    0.850000000000    0.550000000000
Si    0.250000000000    0.950000000000    0.550000000000
Si    0.200000000000    0.800000000000    0.600000000000
Si    0.300000000000    0.900000000000    0.600000000000
Si    0.300000000000    0.800000000000    0.700000000000
Si    0.200000000000    0.900000000000    0.700000000000
Si    0.250000000000    0.850000000000    0.650000000000
Si    0.350000000000    0.950000000000    0.650000000000
Si    0.350000000000    0.850000000000    0.750000000000
Si    0.250000000000    0.950000000000    0.750000000000
Si    0.200000000000    0.800000000000    0.800000000000
Si    0.300000000000    0.900000000000    0.800000000000
Si    0.300000000000    0.800000000000    0.900000000000
Si    0.200000000000    0.900000000000    0.900000000000
Si    0.250000000000    0.850000000000    0.850000000000
Si    0.350000000000    0.950000000000    0.850000000000
Si    0.350000000000    0.850000000000    0.950000000000
Si    0.250000000000    0.950000000000    0.950000000000
Si    0.400000000000    0.000000000000    0.000000000000
Si    0.500000000000    0.100000000000    0.000000000000
Si    0.500000000000    0.000000000000    0.100000000000
Si    0.400000000000    0.100000000000    0.100000000000
Si    0.450000000000    0.050000000000    0.050000000000
Si    0.550000000000    0.150000000000    0.050000000000
Si    0.550000000000    0.050000000000    0.150000000000
Si    0.450000000000    0.150000000000    0.150000000000
Si    0.400000000000    0.000000000000    0.200000000000
Si    0.500000000000    0.100000000000    0.200000000000
Si    0.500000000000    0.000000000000    0.300000000000
Si    0.400000000000    0.100000000000    0.300000000000
Si    0.450000000000    0.050000000000    0.250000000000
Si    0.550000000000    0.150000000000    0.250000000000
Si    0.550000000000    0.050000000000    0.350000000000
Si    0.450000000000    0.150000000000    0.350000000000
Si    0.400000000000    0.000000000000    0.400000000000
Si    0.500000000000    0.100000000000    0.400000000000
Si    0.500000000000    0.000000000000    0.500000000000
Si    0.400000000000    0.100000000000    0.500000000000
Si    0.450000000000    0.050000000000    0.450000000000
Si    0.550000000000    0.150000000000    0.450000000000
Si    0.550000000000    0.050000000000    0.550000000000
Si    0.450000000000    0.150000000000    0.550000000000
Si    0.400000000000    0.000000000000    0.600000000000
Si    0.500000000000    0.100000000000    0.600000000000
Si    0.500000000000    0.000000000000    0.700000000000
Si    0.400000000000    0.100000000000    0.700000000000
Si    0.450000000000    0.050000000000    0.650000000000
Si    0.550000000000    0.150000000000    0.650000000000
Si    0.550000000000    0.050000000000    0.750000000000
Si    0.450000000000    0.150000000000    0.750000000000
Si    0.400000000000    0.000000000000    0.800000000000
Si    0.500000000000    0.100000000000    0.800000000000
Si    0.500000000000    0.000000000000    0.900000000000
Si    0.400000000000    0.100000000000    0.900000000000
Si    0.450000000000    0.050000000000    0.850000000000
Si    0.550000000000    0.150000000000    0.850000000000
Si    0.550000000000    0.050000000000    0.950000000000
Si    0.450000000000    0.150000000000    0.950000000000
Si    0.400000000000    0.200000000000    0.000000000000
Si    0.500000000000    0.300000000000    0.000000000000
Si    0.500000000000    0.200000000000    0.100000000000
Si    0.400000000000    0.300000000000    0.100000000000
Si    0.450000000000    0.250000000000    0.050000000000
Si    0.550000000000    0.350000000000    0.050000000000
Si    0.550000000000    0.250000000000    0.150000000000
Si    0.450000000000    0.350000000000    0.150000000000
Si    0.400000000000    0.200000000000    0.200000000000
Si    0.500000000000    0.300000000000    0.200000000000
Si    0.500000000000    0.200000000000    0.300000000000
Si    0.400000000000    0.300000000000    0.300000000000
Si    0.450000000000    0.250000000000    0.250000000000
Si    0.550000000000    0.350000000000    0.250000000000
Si    0.550000000000    0.250000000000    0.350000000000
Si    0.450000000000    0.350000000000    0.350000000000
Si    0.400000000000    0.200000000000    0.400000000000
Si    0.500000000000    0.300000000000    0.400000000000
Si    0.500000000000    0.200000000000    0.500000000000
Si    0.400000000000    0.300000000000    0.500000000000
Si    0.450000000000    0.250000000000    0.450000000000
Si    0.550000000000    0.350000000000    0.450000000000
Si    0.550000000000    0.250000000000    0.550000000000
Si    0.450000000000    0.350000000000    0.550000000000
Si    0.400000000000    0.200000000000    0.600000000000
Si    0.500000000000    0.300000000000    0.600000000000
Si    0.500000000000    0.200000000000    0.700000000000
Si    0.400000000000    0.300000000000    0.700000000000
Si    0.450000000000    0.250000000000    0.650000000000
Si    0.550000000000    0.350000000000    0.650000000000
Si    0.550000000000    0.250000000000    0.750000000000
Si    0.450000000000    0.350000000000    0.750000000000
Si    0.400000000000    0.200000000000    0.800000000000
Si    0.500000000000    0.300000000000    0.800000000000
Si    0.500000000000    0.200000000000    0.900000000000
Si    0.400000000000    0.300000000000    0.900000000000
Si    0.450000000000    0.250000000000    0.850000000000
Si    0.550000000000    0.350000000000    0.850000000000
Si    0.550000000000    0.250000000000    0.950000000000
Si    0.450000000000    0.350000000000    0.950000000000
Si    0.400000000000    0.400000000000    0.000000000000
Si    0.500000000000    0.500000000000    0.000000000000
Si    0.500000000000    0.400000000000    0.100000000000
Si    0.400000000000    0.500000000000    0.100000000000
Si    0.450000000000    0.450000000000    0.050000000000
Si    0.550000000000    0.550000000000    0.050000000000
Si    0.550000000000    0.450000000000    0.150000000000
Si    0.450000000000    0.550000000000    0.150000000000
Si    0.400000000000    0.400000000000    0.200000000000
Si    0.500000000000    0.500000000000    0.200000000000
Si    0.500000000000    0.400000000000    0.300000000000
Si    0.400000000000    0.500000000000    0.300000000000
Si    0.450000000000    0.450000000000    0.250000000000
Si    0.550000000000    0.550000000000    0.250000000000
Si    0.550000000000    0.450000000000    0.350000000000
Si    0.450000000000    0.550000000000    0.350000000000
Si    0.400000000000    0.400000000000    0.400000000000
Si    0.500000000000    0.500000000000    0.400000000000
Si    0.500000000000    0.400000000000    0.500000000000
Si    0.400000000000    0.500000000000    0.500000000000
Si    0.450000000000    0.450000000000    0.450000000000
Si    0.550000000000    0.550000000000    0.450000000000
Si    0.550000000000    0.450000000000    0.550000000000
Si    0.450000000000    0.550000000000    0.550000000000
Si    0.400000000000    0.400000000000    0.600000000000
Si    0.500000000000    0.500000000000    0.600000000000
Si    0.500000000000    0.400000000000    0.700000000000
Si    0.400000000000    0.500000000000    0.700000000000
Si    0.450000000000    0.450000000000    0.650000000000
Si    0.550000000000    0.550000000000    0.650000000000
Si    0.550000000000    0.450000000000    0.750000000000
Si    0.450000000000    0.550000000000    0.750000000000
Si    0.400000000000    0.400000000000    0.800000000000
Si    0.500000000000    0.500000000000    0.800000000000
Si    0.500000000000    0.400000000000    0.900000000000
Si    0.400000000000    0.500000000000    0.900000000000
Si    0.450000000000    0.450000000000    0.850000000000
Si    0.550000000000    0.550000000000    0.850000000000
Si    0.550000000000    0.450000000000    0.950000000000
Si    0.450000000000    0.550000000000    0.950000000000
Si    0.400000000000    0.600000000000    0.000000000000
Si    0.500000000000    0.700000000000    0.000000000000
Si    0.500000000000    0.600000000000    0.100000000000