%BLOCK LATTICE_CART
   2.828739581100000   0.000000000000000   0.000000000000000
   1.414369790550000   2.449760337923151   0.000000000000000
   0.000000000000003   0.000000000000002  50.964992063325312
%END BLOCK LATTICE_CART
%BLOCK POSITIONS_FRAC
    Al   0.000000000000000   0.000000000000000   0.999869984427150
    Al   0.333333333300000   0.333333333300000   0.045191076096442
    Al   0.666666666700000   0.666666666700000   0.090519413796587
    Al   0.000000000000000   0.000000000000000   0.135865568563252
    Al   0.333333333300000   0.333333333300000   0.181182380392914
    Al   0.000000000000000   0.000000000000000   0.226364014840791
    Al   0.500000000000000   0.500000000000000   0.273387333664765
    Al   0.833333333300000   0.833333333300000   0.318579848508059
    Al   0.166666666700000   0.166666666700000   0.363907605820479
    Al   0.500000000000000   0.500000000000000   0.409232427634741
    Al   0.833333333300000   0.833333333300000   0.454544466136335
    Al   0.500000000000000   0.500000000000000   0.499856612282881
    Al   0.166666666700000   0.166666666700000   0.545181720000560
    Al   0.833333333300000   0.833333333300000   0.590509924675701
    Al   0.500000000000000   0.500000000000000   0.635702950102147
    Al   1.000000000000000   1.000000000000000   0.682726827066150
    Al   0.333333333300000   0.333333333300000   0.727909065655328
    Al   0.000000000000000   0.000000000000000   0.773226400406161
    Al   0.666666666700000   0.666666666700000   0.818572972551322
    Al   0.333333333300000   0.333333333300000   0.863901576802158
    Al   1.000000000000000   1.000000000000000   0.909222822912046
    Al   0.666666666700000   0.666666666700000   0.954546423031779
%END BLOCK POSITIONS_FRAC
%BLOCK SPECIES_POT
    Al al.lda.recpot                                                                          
%END BLOCK SPECIES_POT
%BLOCK ION_OPTIMIZATION
           0           0           1
           0           0           1
           0           0           1
           0           0           1
           0           0           1
           0           0           1
           0           0           1
           0           0           1
           0           0           1
           0           0           1
           0           0           1
           0           0           1
           0           0           1
           0           0           1
           0           0           1
           0           0           1
           0           0           1
           0           0           1
           0           0           1
           0           0           1
           0           0           1
           0           0           1
%END BLOCK ION_OPTIMIZATION
