%BLOCK LATTICE_CART
   2.805799707700000   0.000000000000000   0.000000000000000
   1.402899853850000   2.429893824799152   0.000000000000000
   0.000000000000003   0.000000000000002  46.779917233407232
%END BLOCK LATTICE_CART
%BLOCK POSITIONS_FRAC
    Al   0.000000000000000   0.000000000000000   0.999908953746526
    Al   0.333333333300000   0.333333333300000   0.049785439851704
    Al   0.666666666700000   0.666666666700000   0.099658814663985
    Al   0.000000000000000   0.000000000000000   0.149530894914108
    Al   0.333333333300000   0.333333333300000   0.199440348900443
    Al   0.800000000000000   0.800000000000000   0.250546486375912
    Al   0.133333333300000   0.133333333300000   0.300443865109666
    Al   0.466666666700000   0.466666666700000   0.350292032132936
    Al   0.800000000000000   0.800000000000000   0.400132552237018
    Al   0.133333333300000   0.133333333300000   0.449999668625171
    Al   0.800000000000000   0.800000000000000   0.499866880962649
    Al   0.466666666700000   0.466666666700000   0.549707558536390
    Al   0.133333333300000   0.133333333300000   0.599555790604130
    Al   0.800000000000000   0.800000000000000   0.649453209156342
    Al   0.333333333300000   0.333333333300000   0.700559514081583
    Al   1.000000000000000   1.000000000000000   0.750469189208015
    Al   0.666666666700000   0.666666666700000   0.800341570647290
    Al   0.333333333300000   0.333333333300000   0.850215135553766
    Al   0.000000000000000   0.000000000000000   0.900091628954634
    Al   0.666666666700000   0.666666666700000   0.950000273854075
%END BLOCK POSITIONS_FRAC
%BLOCK SPECIES_POT
    Al al.lda.recpot                                                                          
%END BLOCK SPECIES_POT
%BLOCK ION_OPTIMIZATION
           0           0           1
           0           0           1
           0           0           1
           0           0           1
           0           0           1
           0           0           1
           0           0           1
           0           0           1
           0           0           1
           0           0           1
           0           0           1
           0           0           1
           0           0           1
           0           0           1
           0           0           1
           0           0           1
           0           0           1
           0           0           1
           0           0           1
           0           0           1
%END BLOCK ION_OPTIMIZATION
