%BLOCK LATTICE_CART
   2.805799707700000   0.000000000000000   0.000000000000000
   1.402899853850000   2.429893824799152   0.000000000000000
   0.000000000000003   0.000000000000002  50.934786015151971
%END BLOCK LATTICE_CART
%BLOCK POSITIONS_FRAC
    Al   0.000000000000000   0.000000000000000   0.000267074593393
    Al   0.333333333300000   0.333333333300000   0.045410481192553
    Al   0.666666666700000   0.666666666700000   0.090613349472888
    Al   0.000000000000000   0.000000000000000   0.135830449049380
    Al   0.333333333300000   0.333333333300000   0.181557284209195
    Al   0.000000000000000   0.000000000000000   0.227214534953195
    Al   0.666666666700000   0.666666666700000   0.272880417188371
    Al   0.000000000000000   0.000000000000000   0.318538778842164
    Al   0.333333333300000   0.333333333300000   0.363696697069929
    Al   0.666666666700000   0.666666666700000   0.408873764732673
    Al   0.000000000000000   0.000000000000000   0.454545612219247
    Al   0.666666666700000   0.666666666700000   0.500217453944045
    Al   0.333333333300000   0.333333333300000   0.545394493948978
    Al   0.000000000000000   0.000000000000000   0.590552377566810
    Al   0.666666666700000   0.666666666700000   0.636210664395722
    Al   1.000000000000000   1.000000000000000   0.681876460102662
    Al   0.333333333300000   0.333333333300000   0.727533622502226
    Al   1.000000000000000   1.000000000000000   0.773260354984842
    Al   0.666666666700000   0.666666666700000   0.818477366976048
    Al   0.333333333300000   0.333333333300000   0.863680139957242
    Al   0.000000000000000   0.000000000000000   0.908823493090045
    Al   0.666666666700000   0.666666666700000   0.954545268319546
%END BLOCK POSITIONS_FRAC
%BLOCK SPECIES_POT
    Al al_HC.lda.recpot                                                                       
%END BLOCK SPECIES_POT
%BLOCK ION_OPTIMIZATION
           0           0           1
           0           0           1
           0           0           1
           0           0           1
           0           0           1
           0           0           1
           0           0           1
           0           0           1
           0           0           1
           0           0           1
           0           0           1
           0           0           1
           0           0           1
           0           0           1
           0           0           1
           0           0           1
           0           0           1
           0           0           1
           0           0           1
           0           0           1
           0           0           1
           0           0           1
%END BLOCK ION_OPTIMIZATION
