ATOMIC_SPECIES
N 14 /home/mhchen_pkuhpc/mhchen_cls/lustre2/5_liurenxi/03a01_abacus-lcao-scan/pp/SG15_ONCV_v1.0_upf/N_ONCV_PBE-1.0.upf
C 12 /home/mhchen_pkuhpc/mhchen_cls/lustre2/5_liurenxi/03a01_abacus-lcao-scan/pp/SG15_ONCV_v1.0_upf/C_ONCV_PBE-1.0.upf
H 1 /home/mhchen_pkuhpc/mhchen_cls/lustre2/5_liurenxi/03a01_abacus-lcao-scan/pp/SG15_ONCV_v1.0_upf/H_ONCV_PBE-1.0.upf
O_empty 16 /home/mhchen_pkuhpc/mhchen_cls/lustre2/5_liurenxi/03a01_abacus-lcao-scan/pp/SG15_ONCV_v1.0_upf/O_ONCV_PBE-1.0.upf
N_empty 14 /home/mhchen_pkuhpc/mhchen_cls/lustre2/5_liurenxi/03a01_abacus-lcao-scan/pp/SG15_ONCV_v1.0_upf/N_ONCV_PBE-1.0.upf
C_empty 12 /home/mhchen_pkuhpc/mhchen_cls/lustre2/5_liurenxi/03a01_abacus-lcao-scan/pp/SG15_ONCV_v1.0_upf/C_ONCV_PBE-1.0.upf
H_empty 1 /home/mhchen_pkuhpc/mhchen_cls/lustre2/5_liurenxi/03a01_abacus-lcao-scan/pp/SG15_ONCV_v1.0_upf/H_ONCV_PBE-1.0.upf

LATTICE_CONSTANT
1.8897161646321

LATTICE_VECTORS
20 0 0
0 20 0
0 0 20

NUMERICAL_ORBITAL
/home/mhchen_pkuhpc/mhchen_cls/lustre2/5_liurenxi/03a01_abacus-lcao-scan/orb/Orb_DZP_E100_Full/N/N_gga_10au_100Ry_2s2p1d.orb
/home/mhchen_pkuhpc/mhchen_cls/lustre2/5_liurenxi/03a01_abacus-lcao-scan/orb/Orb_DZP_E100_Full/C/C_gga_10au_100Ry_2s2p1d.orb
/home/mhchen_pkuhpc/mhchen_cls/lustre2/5_liurenxi/03a01_abacus-lcao-scan/orb/Orb_DZP_E100_Full/H/H_gga_10au_100Ry_2s1p.orb
/home/mhchen_pkuhpc/mhchen_cls/lustre2/5_liurenxi/03a01_abacus-lcao-scan/orb/Orb_DZP_E100_Full/O/O_gga_10au_100Ry_2s2p1d.orb
/home/mhchen_pkuhpc/mhchen_cls/lustre2/5_liurenxi/03a01_abacus-lcao-scan/orb/Orb_DZP_E100_Full/N/N_gga_10au_100Ry_2s2p1d.orb
/home/mhchen_pkuhpc/mhchen_cls/lustre2/5_liurenxi/03a01_abacus-lcao-scan/orb/Orb_DZP_E100_Full/C/C_gga_10au_100Ry_2s2p1d.orb
/home/mhchen_pkuhpc/mhchen_cls/lustre2/5_liurenxi/03a01_abacus-lcao-scan/orb/Orb_DZP_E100_Full/H/H_gga_10au_100Ry_2s1p.orb

ATOMIC_POSITIONS
Cartesian    # Cartesian(Unit is LATTICE_CONSTANT)
N
0.0
2
1.432762 0.363970 -0.015951 m 0 0 0 
1.388312 -1.908304 0.419815 m 0 0 0 
C
0.0
5
2.115420 -0.780345 0.168110 m 0 0 0 
3.523759 -0.801610 0.154503 m 0 0 0 
4.218590 0.373578 -0.052593 m 0 0 0 
3.509971 1.561501 -0.244976 m 0 0 0 
2.128014 1.495332 -0.217537 m 0 0 0 
H
0.0
6
4.045921 -1.736136 0.307688 m 0 0 0 
5.299943 0.366601 -0.066335 m 0 0 0 
4.011092 2.502431 -0.413005 m 0 0 0 
1.533988 2.389384 -0.367057 m 0 0 0 
1.869471 -2.781277 0.294038 m 0 0 0 
0.408907 -1.907994 0.130086 m 0 0 0 
O_empty
0.0
1
-1.397621 -1.885837 -0.367306 m 0 0 0 
N_empty
0.0
1
-1.464255 0.364183 0.019230 m 0 0 0 
C_empty
0.0
5
-4.185740 0.369667 0.036096 m 0 0 0 
-3.483260 1.578311 0.250075 m 0 0 0 
-2.117950 1.530705 0.233838 m 0 0 0 
-2.077383 -0.863749 -0.189941 m 0 0 0 
-3.515603 -0.805195 -0.175759 m 0 0 0 
H_empty
0.0
5
-5.267804 0.370743 0.041142 m 0 0 0 
-3.992033 2.512756 0.421441 m 0 0 0 
-1.492920 2.398410 0.388502 m 0 0 0 
-4.040123 -1.734845 -0.337927 m 0 0 0 
-0.426527 0.361213 0.007354 m 0 0 0 
