%BLOCK LATTICE_CART
   2.806843720900000   0.000000000000000   0.000000000000000
   1.403421860450000   2.430797966752238   0.000000000000000
   0.000000000000003   0.000000000000002  45.889594374483373
%END BLOCK LATTICE_CART
%BLOCK POSITIONS_FRAC
    Al   0.000000000000000   0.000000000000000   0.000480189483731
    Al   0.333333333300000   0.333333333300000   0.050325857971132
    Al   0.666666666700000   0.666666666700000   0.100241100276637
    Al   0.000000000000000   0.000000000000000   0.150117411262653
    Al   0.333333333300000   0.333333333300000   0.199999675784281
    Al   0.666666666700000   0.666666666700000   0.249881997579476
    Al   0.000000000000000   0.000000000000000   0.299758452911577
    Al   0.333333333300000   0.333333333300000   0.349673834073130
    Al   0.666666666700000   0.666666666700000   0.399519559167003
    Al   0.000000000000000   0.000000000000000   0.449998815794997
    Al   0.666666666700000   0.666666666700000   0.500478240998603
    Al   0.333333333300000   0.333333333300000   0.550324369184339
    Al   0.000000000000000   0.000000000000000   0.600240274331264
    Al   0.666666666700000   0.666666666700000   0.650117302557349
    Al   0.333333333300000   0.333333333300000   0.700000269018355
    Al   0.000000000000000   0.000000000000000   0.749883266497116
    Al   0.666666666700000   0.666666666700000   0.799760276971089
    Al   0.333333333300000   0.333333333300000   0.849675993029343
    Al   0.000000000000000   0.000000000000000   0.899521898897624
    Al   0.666666666700000   0.666666666700000   0.950001083690140
%END BLOCK POSITIONS_FRAC
%BLOCK SPECIES_POT
    Al al.lda.recpot                                                                          
%END BLOCK SPECIES_POT
%BLOCK ION_OPTIMIZATION
           0           0           1
           0           0           1
           0           0           1
           0           0           1
           0           0           1
           0           0           1
           0           0           1
           0           0           1
           0           0           1
           0           0           1
           0           0           1
           0           0           1
           0           0           1
           0           0           1
           0           0           1
           0           0           1
           0           0           1
           0           0           1
           0           0           1
           0           0           1
%END BLOCK ION_OPTIMIZATION
