%BLOCK LATTICE_CART
   2.812387583300000   0.000000000000000   0.000000000000000
   1.406193791650000   2.435599092425724   0.000000000000000
   0.000000000000003   0.000000000000002  46.010039755881031
%END BLOCK LATTICE_CART
%BLOCK POSITIONS_FRAC
    Al   0.000000000000000   0.000000000000000   0.000133928392556
    Al   0.333333333300000   0.333333333300000   0.049950132922345
    Al   0.666666666700000   0.666666666700000   0.099807497883403
    Al   0.000000000000000   0.000000000000000   0.149614961949690
    Al   0.333333333300000   0.333333333300000   0.199633808389359
    Al   0.966666666700000   0.966666666700000   0.250316547741582
    Al   0.300000000000000   0.300000000000000   0.300330977353260
    Al   0.633333333300000   0.633333333300000   0.350138789909501
    Al   0.966666666700000   0.966666666700000   0.399904762295042
    Al   0.300000000000000   0.300000000000000   0.450000165884293
    Al   0.966666666700000   0.966666666700000   0.500095610910374
    Al   0.633333333300000   0.633333333300000   0.549861604157857
    Al   0.300000000000000   0.300000000000000   0.599669293533181
    Al   0.966666666700000   0.966666666700000   0.649683529272394
    Al   0.333333333300000   0.333333333300000   0.700366110735267
    Al   1.000000000000000   1.000000000000000   0.750384879037003
    Al   0.666666666700000   0.666666666700000   0.800192319613022
    Al   0.333333333300000   0.333333333300000   0.850049610380001
    Al   0.000000000000000   0.000000000000000   0.899865677311678
    Al   0.666666666700000   0.666666666700000   0.949999761023434
%END BLOCK POSITIONS_FRAC
%BLOCK SPECIES_POT
    Al al.lda.recpot                                                                          
%END BLOCK SPECIES_POT
%BLOCK ION_OPTIMIZATION
           0           0           1
           0           0           1
           0           0           1
           0           0           1
           0           0           1
           0           0           1
           0           0           1
           0           0           1
           0           0           1
           0           0           1
           0           0           1
           0           0           1
           0           0           1
           0           0           1
           0           0           1
           0           0           1
           0           0           1
           0           0           1
           0           0           1
           0           0           1
%END BLOCK ION_OPTIMIZATION
