%BLOCK LATTICE_CART
3.453834930000    0.000000000000    0.000000000000    
0.000000000000    3.464917300632    0.000000000000    
0.000000000000    0.000000000000    10.300706451781    
%END BLOCK LATTICE_CART
%BLOCK POSITIONS_FRAC
Li    0.000000000000    0.500000000000    0.500000000000
Li    0.500000000000    0.000000000000    0.000000000000
Mg    0.500000000000    0.000000000000    0.341317590000
Mg    0.500000000000    0.000000000000    0.658682410000
Mg    0.000000000000    0.500000000000    0.841317590000
Mg    0.000000000000    0.500000000000    0.158682410000
%END BLOCK POSITIONS_FRAC
%BLOCK SPECIES_POT
Li li.gga.recpot
Mg mg.gga.recpot
%END BLOCK SPECIES_POT
