%BLOCK LATTICE_CART
  -1.672640166681899   1.672235416673017   1.672248130668070
   1.672238153328270  -1.672631381334741   1.672239333194338
   1.672242370153504   1.672230836014800  -1.672635511304140
%END BLOCK LATTICE_CART
%BLOCK POSITIONS_FRAC
    Li   0.000000000000000   0.000000000000000   0.000000000000000
%END BLOCK POSITIONS_FRAC
%BLOCK SPECIES_POT
    Li li.lda.recpot                                                                          
%END BLOCK SPECIES_POT
