ATOMIC_SPECIES
Ga 69.723 ga.gga.psp blps
P 30.974 p.gga.psp blps

LATTICE_CONSTANT
1.871962876580774  // add lattice constant

LATTICE_VECTORS
1.920859442316    -3.327026148289    0.000000000000    
1.920859442316    3.327026148289    0.000000000000    
0.000000000000    0.000000000000    6.332932730000    

ATOMIC_POSITIONS
Direct

Ga
0.0
2
    0.666666666667    0.333333333333    0.500054490000 1 1 1
    0.333333333333    0.666666666667    0.000054490000 1 1 1
P
0.0
2
    0.666666666667    0.333333333333    0.873945510000 1 1 1
    0.333333333333    0.666666666667    0.373945510000 1 1 1
