ATOMIC_SPECIES
Li 3 li.lda.lps

LATTICE_CONSTANT
6.3714139190851675  // add lattice constant

LATTICE_VECTORS
-0.500000000000    0.500000000000    0.500000000000    
0.500000000000    -0.500000000000    0.500000000000    
0.500000000000    0.500000000000    -0.500000000000    

ATOMIC_POSITIONS
Direct

Li
0.0
1
    0.000000000000    0.000000000000    0.000000000000 1 1 1
