%BLOCK LATTICE_CART
   2.805799707700000   0.000000000000000   0.000000000000000
   1.402899853850000   2.429893824799152   0.000000000000000
   0.000000000000003   0.000000000000002  45.855097869123327
%END BLOCK LATTICE_CART
%BLOCK POSITIONS_FRAC
    Al   0.000000000000000   0.000000000000000   0.000184371807619
    Al   0.333333333300000   0.333333333300000   0.050128173632173
    Al   0.666666666700000   0.666666666700000   0.100048559075676
    Al   1.000000000000000   1.000000000000000   0.150013390530159
    Al   0.333333333300000   0.333333333300000   0.199999968041781
    Al   0.666666666700000   0.666666666700000   0.249986580026607
    Al   0.000000000000000   0.000000000000000   0.299951458656603
    Al   0.333333333300000   0.333333333300000   0.349871855140875
    Al   0.666666666700000   0.666666666700000   0.399815628786589
    Al   0.000000000000000   0.000000000000000   0.450000839703664
    Al   0.666666666700000   0.666666666700000   0.500185990124460
    Al   0.333333333300000   0.333333333300000   0.550129564688242
    Al   0.000000000000000   0.000000000000000   0.600049573988028
    Al   0.666666666700000   0.666666666700000   0.650013937097280
    Al   0.333333333300000   0.333333333300000   0.699999992890709
    Al   0.000000000000000   0.000000000000000   0.749986074720870
    Al   0.666666666700000   0.666666666700000   0.799950480062000
    Al   0.333333333300000   0.333333333300000   0.849870492314178
    Al   0.000000000000000   0.000000000000000   0.899814021707672
    Al   0.666666666700000   0.666666666700000   0.949999138714794
%END BLOCK POSITIONS_FRAC
%BLOCK SPECIES_POT
    Al al_HC.lda.recpot                                                                       
%END BLOCK SPECIES_POT
%BLOCK ION_OPTIMIZATION
           0           0           1
           0           0           1
           0           0           1
           0           0           1
           0           0           1
           0           0           1
           0           0           1
           0           0           1
           0           0           1
           0           0           1
           0           0           1
           0           0           1
           0           0           1
           0           0           1
           0           0           1
           0           0           1
           0           0           1
           0           0           1
           0           0           1
           0           0           1
%END BLOCK ION_OPTIMIZATION
