%BLOCK LATTICE_CART
0.000000000000    -0.000000000000    0.000000000000    
0.000000000000    0.000000000000    0.000000000000    
0.000000000000    0.000000000000    0.000000000000    
%END BLOCK LATTICE_CART
%BLOCK POSITIONS_FRAC
Ga    0.666666666667    0.333333333333    0.500683080000
Ga    0.333333333333    0.666666666667    0.000683080000
Sb    0.666666666667    0.333333333333    0.874216920000
Sb    0.333333333333    0.666666666667    0.374216920000
%END BLOCK POSITIONS_FRAC
%BLOCK SPECIES_POT
Ga ga.gga.psp
Sb sb.gga.psp
%END BLOCK SPECIES_POT
