%BLOCK LATTICE_CART
  -1.593368029575952   1.593640787972468   1.593640724955132
   1.593640607109251  -1.593368004364473   1.593640699522556
   1.593640593254459   1.593640748685101  -1.593367990455936
%END BLOCK LATTICE_CART
%BLOCK POSITIONS_FRAC
    Al   0.000000000000000   0.000000000000000   0.000000000000000
%END BLOCK POSITIONS_FRAC
%BLOCK SPECIES_POT
    Al al.lda.recpot                                                                          
%END BLOCK SPECIES_POT
