%BLOCK LATTICE_CART
  -0.000704636750801   1.988234277581441   1.988234259491837
   1.988234244589543  -0.000704672074178   1.988234261856988
   1.988234240607679   1.988234275964729  -0.000704653998930
%END BLOCK LATTICE_CART
%BLOCK POSITIONS_FRAC
    Al   0.000000000000000   0.000000000000000   0.000000000000000
%END BLOCK POSITIONS_FRAC
%BLOCK SPECIES_POT
    Al al.lda.recpot                                                                          
%END BLOCK SPECIES_POT
