%BLOCK LATTICE_CART
   2.691873969094286  -0.000056378688588  -0.000096889282323
  -0.000056378675251   2.691874941168342  -0.000018020334853
  -0.000096889258124  -0.000018020334144   2.691874941878741
%END BLOCK LATTICE_CART
%BLOCK POSITIONS_FRAC
    Li   0.000000000000000   0.000000000000000   0.000000000000000
%END BLOCK POSITIONS_FRAC
%BLOCK SPECIES_POT
    Li li.lda.recpot                                                                          
%END BLOCK SPECIES_POT
