ATOMIC_SPECIES
Al 26.981 al.gga.psp blps
Mg 24.305 mg.gga.psp blps

LATTICE_CONSTANT
16  // add lattice constant

LATTICE_VECTORS
1.000000000000    0.000000000000    0.000000000000    
0.000000000000    1.000000000000    0.000000000000    
0.000000000000    0.000000000000    1.000000000000    

ATOMIC_POSITIONS
Direct

Al
0.0
16
    0.000000000000    0.000000000000    0.000000000000 1 1 1
    0.000000000000    0.250000000000    0.250000000000 1 1 1
    0.250000000000    0.000000000000    0.750000000000 1 1 1
    0.000000000000    0.250000000000    0.750000000000 1 1 1
    0.000000000000    0.500000000000    0.000000000000 1 1 1
    0.250000000000    0.500000000000    0.250000000000 1 1 1
    0.000000000000    0.500000000000    0.500000000000 1 1 1
    0.250000000000    0.500000000000    0.750000000000 1 1 1
    0.000000000000    0.750000000000    0.750000000000 1 1 1
    0.500000000000    0.000000000000    0.000000000000 1 1 1
    0.750000000000    0.250000000000    0.000000000000 1 1 1
    0.750000000000    0.000000000000    0.250000000000 1 1 1
    0.500000000000    0.250000000000    0.750000000000 1 1 1
    0.500000000000    0.500000000000    0.000000000000 1 1 1
    0.750000000000    0.750000000000    0.000000000000 1 1 1
    0.500000000000    0.500000000000    0.500000000000 1 1 1
Mg
0.0
16
    0.250000000000    0.250000000000    0.000000000000 1 1 1
    0.250000000000    0.000000000000    0.250000000000 1 1 1
    0.000000000000    0.000000000000    0.500000000000 1 1 1
    0.250000000000    0.250000000000    0.500000000000 1 1 1
    0.250000000000    0.750000000000    0.000000000000 1 1 1
    0.000000000000    0.750000000000    0.250000000000 1 1 1
    0.250000000000    0.750000000000    0.500000000000 1 1 1
    0.500000000000    0.250000000000    0.250000000000 1 1 1
    0.500000000000    0.000000000000    0.500000000000 1 1 1
    0.750000000000    0.250000000000    0.500000000000 1 1 1
    0.750000000000    0.000000000000    0.750000000000 1 1 1
    0.750000000000    0.500000000000    0.250000000000 1 1 1
    0.500000000000    0.750000000000    0.250000000000 1 1 1
    0.750000000000    0.750000000000    0.500000000000 1 1 1
    0.750000000000    0.500000000000    0.750000000000 1 1 1
    0.500000000000    0.750000000000    0.750000000000 1 1 1
