Transformation
0.529176965773
32.125341805842  0.000000000000  0.000000000000
0.000000000000  34.015067794421  0.000000000000
0.000000000000  0.000000000000  202.480898796161
C  
1000  
Direct
0.626187000000  0.527269000000  0.008089000000  
0.640915000000  0.476576000000  0.018882000000  
0.182516000000  0.475945000000  0.018894000000  
0.627229000000  0.524820000000  0.030616000000  
0.631892000000  0.512626000000  0.045589000000  
0.180102000000  0.444735000000  0.051977000000  
0.180103000000  0.444993000000  0.067695000000  
0.631875000000  0.512675000000  0.074307000000  
0.627452000000  0.524285000000  0.089059000000  
0.640958000000  0.476305000000  0.100096000000  
0.182604000000  0.476514000000  0.100107000000  
0.627469000000  0.524244000000  0.111196000000  
0.632042000000  0.512192000000  0.125956000000  
0.180103000000  0.445070000000  0.132446000000  
0.180103000000  0.444997000000  0.148155000000  
0.632112000000  0.511989000000  0.154631000000  
0.627346000000  0.524540000000  0.169776000000  
0.641020000000  0.475901000000  0.181471000000  
0.182582000000  0.476369000000  0.181341000000  
0.626220000000  0.527192000000  0.192448000000  
0.542289000000  0.625204000000  0.006920000000  
0.590590000000  0.583534000000  0.013311000000  
0.592176000000  0.581696000000  0.026456000000  
0.545744000000  0.622935000000  0.033216000000  
0.547936000000  0.621449000000  0.046655000000  
0.599565000000  0.572550000000  0.053069000000  
0.599660000000  0.572426000000  0.066972000000  
0.547179000000  0.621966000000  0.073463000000  
0.545208000000  0.623292000000  0.086933000000  
0.592370000000  0.581468000000  0.093594000000  
0.592092000000  0.581794000000  0.106591000000  
0.545608000000  0.623026000000  0.113305000000  
0.547885000000  0.621484000000  0.126628000000  
0.600047000000  0.571918000000  0.133209000000  
0.599926000000  0.572076000000  0.147096000000  
0.547683000000  0.621622000000  0.153447000000  
0.545213000000  0.623289000000  0.166982000000  
0.592225000000  0.581638000000  0.173980000000  
0.590773000000  0.583324000000  0.187248000000  
0.542603000000  0.625001000000  0.193492000000  
0.411994000000  0.663237000000  0.006703000000  
0.481176000000  0.653185000000  0.013165000000  
0.481607000000  0.653057000000  0.026878000000  
0.411938000000  0.663237000000  0.033429000000  
0.411660000000  0.663237000000  0.046658000000  
0.483993000000  0.652331000000  0.053386000000  
0.483965000000  0.652339000000  0.066679000000  
0.411864000000  0.663237000000  0.073303000000  
0.411671000000  0.663237000000  0.086661000000  
0.481739000000  0.653017000000  0.093244000000  
0.481549000000  0.653074000000  0.106915000000  
0.411902000000  0.663237000000  0.113507000000  
0.412119000000  0.663237000000  0.126750000000  
0.484158000000  0.652279000000  0.133401000000  
0.484464000000  0.652184000000  0.146655000000  
0.412025000000  0.663237000000  0.153328000000  
0.411843000000  0.663237000000  0.166551000000  
0.481353000000  0.653132000000  0.173108000000  
0.480485000000  0.653389000000  0.186985000000  
0.411919000000  0.663237000000  0.193320000000  
0.281560000000  0.625409000000  0.006711000000  
0.343564000000  0.653541000000  0.013104000000  
0.343161000000  0.653423000000  0.026803000000  
0.278859000000  0.623649000000  0.033090000000  
0.276437000000  0.622025000000  0.046436000000  
0.340123000000  0.652512000000  0.053229000000  
0.339945000000  0.652457000000  0.066605000000  
0.276433000000  0.622022000000  0.073306000000  
0.278453000000  0.623380000000  0.086789000000  
0.341705000000  0.652992000000  0.093260000000  
0.341567000000  0.652950000000  0.106934000000  
0.277458000000  0.622715000000  0.113299000000  
0.275568000000  0.621432000000  0.126726000000  
0.339886000000  0.652439000000  0.133482000000  
0.339888000000  0.652440000000  0.146678000000  
0.275993000000  0.621723000000  0.153512000000  
0.278459000000  0.623384000000  0.166955000000  
0.342602000000  0.653259000000  0.173143000000  
0.343386000000  0.653489000000  0.186869000000  
0.281309000000  0.625248000000  0.193226000000  
0.197357000000  0.527302000000  0.007819000000  
0.233231000000  0.583868000000  0.013117000000  
0.231999000000  0.582449000000  0.026304000000  
0.196402000000  0.525063000000  0.030630000000  
0.191671000000  0.512720000000  0.045545000000  
0.223947000000  0.572528000000  0.052902000000  
0.223902000000  0.572468000000  0.066765000000  
0.191819000000  0.513145000000  0.074107000000  
0.196412000000  0.525087000000  0.088955000000  
0.231292000000  0.581624000000  0.093440000000  
0.231237000000  0.581559000000  0.106739000000  
0.196163000000  0.524490000000  0.111189000000  
0.191692000000  0.512780000000  0.125978000000  
0.223435000000  0.571855000000  0.133266000000  
0.223596000000  0.572068000000  0.147095000000  
0.191515000000  0.512272000000  0.154517000000  
0.196045000000  0.524207000000  0.169530000000  
0.231314000000  0.581650000000  0.173878000000  
0.232746000000  0.583312000000  0.186866000000  
0.197214000000  0.526971000000  0.192103000000  
0.197342000000  0.361620000000  0.008089000000  
0.182614000000  0.412312000000  0.018882000000  
0.641014000000  0.412944000000  0.018894000000  
0.196300000000  0.364069000000  0.030616000000  
0.191638000000  0.376263000000  0.045589000000  
0.643427000000  0.444154000000  0.051977000000  
0.643426000000  0.443896000000  0.067695000000  
0.191655000000  0.376214000000  0.074307000000  
0.196077000000  0.364604000000  0.089059000000  
0.182572000000  0.412584000000  0.100096000000  
0.640925000000  0.412375000000  0.100107000000  
0.196060000000  0.364645000000  0.111196000000  
0.191488000000  0.376697000000  0.125956000000  
0.643426000000  0.443819000000  0.132446000000  
0.643426000000  0.443892000000  0.148155000000  
0.191418000000  0.376900000000  0.154631000000  
0.196183000000  0.364349000000  0.169776000000  
0.182509000000  0.412988000000  0.181471000000  
0.640948000000  0.412520000000  0.181341000000  
0.197309000000  0.361697000000  0.192448000000  
0.281241000000  0.263685000000  0.006920000000  
0.232939000000  0.305355000000  0.013311000000  
0.231353000000  0.307193000000  0.026456000000  
0.277786000000  0.265954000000  0.033216000000  
0.275593000000  0.267440000000  0.046655000000  
0.223964000000  0.316339000000  0.053069000000  
0.223870000000  0.316463000000  0.066972000000  
0.276350000000  0.266923000000  0.073463000000  
0.278321000000  0.265596000000  0.086933000000  
0.231159000000  0.307421000000  0.093594000000  
0.231437000000  0.307095000000  0.106591000000  
0.277921000000  0.265863000000  0.113305000000  
0.275644000000  0.267405000000  0.126628000000  
0.223483000000  0.316971000000  0.133209000000  
0.223603000000  0.316813000000  0.147096000000  
0.275847000000  0.267267000000  0.153447000000  
0.278316000000  0.265600000000  0.166982000000  
0.231304000000  0.307251000000  0.173980000000  
0.232756000000  0.305565000000  0.187248000000  
0.280926000000  0.263888000000  0.193492000000  
0.411536000000  0.225652000000  0.006703000000  
0.342354000000  0.235704000000  0.013165000000  
0.341922000000  0.235832000000  0.026878000000  
0.411592000000  0.225652000000  0.033429000000  
0.411869000000  0.225652000000  0.046658000000  
0.339537000000  0.236558000000  0.053386000000  
0.339564000000  0.236550000000  0.066679000000  
0.411665000000  0.225652000000  0.073303000000  
0.411858000000  0.225652000000  0.086661000000  
0.341790000000  0.235872000000  0.093244000000  
0.341980000000  0.235815000000  0.106915000000  
0.411627000000  0.225652000000  0.113507000000  
0.411411000000  0.225652000000  0.126750000000  
0.339371000000  0.236609000000  0.133401000000  
0.339065000000  0.236705000000  0.146655000000  
0.411505000000  0.225652000000  0.153328000000  
0.411687000000  0.225652000000  0.166551000000  
0.342176000000  0.235756000000  0.173108000000  
0.343045000000  0.235500000000  0.186985000000  
0.411610000000  0.225652000000  0.193320000000  
0.541970000000  0.263480000000  0.006711000000  
0.479965000000  0.235348000000  0.013104000000  
0.480369000000  0.235466000000  0.026803000000  
0.544670000000  0.265240000000  0.033090000000  
0.547092000000  0.266864000000  0.046436000000  
0.483407000000  0.236377000000  0.053229000000  
0.483584000000  0.236432000000  0.066605000000  
0.547096000000  0.266867000000  0.073306000000  
0.545077000000  0.265509000000  0.086789000000  
0.481825000000  0.235897000000  0.093260000000  
0.481962000000  0.235939000000  0.106934000000  
0.546072000000  0.266174000000  0.113299000000  
0.547961000000  0.267457000000  0.126726000000  
0.483643000000  0.236450000000  0.133482000000  
0.483641000000  0.236449000000  0.146678000000  
0.547536000000  0.267166000000  0.153512000000  
0.545070000000  0.265505000000  0.166955000000  
0.480928000000  0.235630000000  0.173143000000  
0.480143000000  0.235400000000  0.186869000000  
0.542220000000  0.263641000000  0.193226000000  
0.626172000000  0.361587000000  0.007819000000  
0.590299000000  0.305021000000  0.013117000000  
0.591531000000  0.306440000000  0.026304000000  
0.627127000000  0.363826000000  0.030630000000  
0.631859000000  0.376168000000  0.045545000000  
0.599582000000  0.316361000000  0.052902000000  
0.599628000000  0.316421000000  0.066765000000  
0.631711000000  0.375744000000  0.074107000000  
0.627117000000  0.363801000000  0.088955000000  
0.592237000000  0.307265000000  0.093440000000  
0.592292000000  0.307329000000  0.106739000000  
0.627367000000  0.364399000000  0.111189000000  
0.631838000000  0.376109000000  0.125978000000  
0.600094000000  0.317034000000  0.133266000000  
0.599933000000  0.316821000000  0.147095000000  
0.632014000000  0.376616000000  0.154517000000  
0.627484000000  0.364682000000  0.169530000000  
0.592215000000  0.307239000000  0.173878000000  
0.590784000000  0.305577000000  0.186866000000  
0.626316000000  0.361918000000  0.192103000000  
0.626187000000  0.527269000000  0.208089000000  
0.640915000000  0.476576000000  0.218882000000  
0.182516000000  0.475945000000  0.218894000000  
0.627229000000  0.524820000000  0.230616000000  
0.631892000000  0.512626000000  0.245589000000  
0.180102000000  0.444735000000  0.251977000000  
0.180103000000  0.444993000000  0.267695000000  
0.631875000000  0.512675000000  0.274307000000  
0.627452000000  0.524285000000  0.289059000000  
0.640958000000  0.476305000000  0.300096000000  
0.182604000000  0.476514000000  0.300107000000  
0.627469000000  0.524244000000  0.311196000000  
0.632042000000  0.512192000000  0.325956000000  
0.180103000000  0.445070000000  0.332446000000  
0.180103000000  0.444997000000  0.348155000000  
0.632112000000  0.511989000000  0.354631000000  
0.627346000000  0.524540000000  0.369776000000  
0.641020000000  0.475901000000  0.381471000000  
0.182582000000  0.476369000000  0.381341000000  
0.626220000000  0.527192000000  0.392448000000  
0.542289000000  0.625204000000  0.206920000000  
0.590590000000  0.583534000000  0.213311000000  
0.592176000000  0.581696000000  0.226456000000  
0.545744000000  0.622935000000  0.233216000000  
0.547936000000  0.621449000000  0.246655000000  
0.599565000000  0.572550000000  0.253069000000  
0.599660000000  0.572426000000  0.266972000000  
0.547179000000  0.621966000000  0.273463000000  
0.545208000000  0.623292000000  0.286933000000  
0.592370000000  0.581468000000  0.293594000000  
0.592092000000  0.581794000000  0.306591000000  
0.545608000000  0.623026000000  0.313305000000  
0.547885000000  0.621484000000  0.326628000000  
0.600047000000  0.571918000000  0.333209000000  
0.599926000000  0.572076000000  0.347096000000  
0.547683000000  0.621622000000  0.353447000000  
0.545213000000  0.623289000000  0.366982000000  
0.592225000000  0.581638000000  0.373980000000  
0.590773000000  0.583324000000  0.387248000000  
0.542603000000  0.625001000000  0.393492000000  
0.411994000000  0.663237000000  0.206703000000  
0.481176000000  0.653185000000  0.213165000000  
0.481607000000  0.653057000000  0.226878000000  
0.411938000000  0.663237000000  0.233429000000  
0.411660000000  0.663237000000  0.246658000000  
0.483993000000  0.652331000000  0.253386000000  
0.483965000000  0.652339000000  0.266679000000  
0.411864000000  0.663237000000  0.273303000000  
0.411671000000  0.663237000000  0.286661000000  
0.481739000000  0.653017000000  0.293244000000  
0.481549000000  0.653074000000  0.306915000000  
0.411902000000  0.663237000000  0.313507000000  
0.412119000000  0.663237000000  0.326750000000  
0.484158000000  0.652279000000  0.333401000000  
0.484464000000  0.652184000000  0.346655000000  
0.412025000000  0.663237000000  0.353328000000  
0.411843000000  0.663237000000  0.366551000000  
0.481353000000  0.653132000000  0.373108000000  
0.480485000000  0.653389000000  0.386985000000  
0.411919000000  0.663237000000  0.393320000000  
0.281560000000  0.625409000000  0.206711000000  
0.343564000000  0.653541000000  0.213105000000  
0.343161000000  0.653423000000  0.226803000000  
0.278859000000  0.623649000000  0.233090000000  
0.276437000000  0.622025000000  0.246436000000  
0.340123000000  0.652512000000  0.253229000000  
0.339945000000  0.652457000000  0.266605000000  
0.276433000000  0.622022000000  0.273306000000  
0.278453000000  0.623380000000  0.286789000000  
0.341705000000  0.652992000000  0.293260000000  
0.341567000000  0.652950000000  0.306934000000  
0.277458000000  0.622715000000  0.313299000000  
0.275568000000  0.621432000000  0.326726000000  
0.339886000000  0.652439000000  0.333482000000  
0.339888000000  0.652440000000  0.346678000000  
0.275993000000  0.621723000000  0.353512000000  
0.278459000000  0.623384000000  0.366955000000  
0.342602000000  0.653259000000  0.373143000000  
0.343386000000  0.653489000000  0.386869000000  
0.281309000000  0.625248000000  0.393226000000  
0.197357000000  0.527302000000  0.207819000000  
0.233231000000  0.583868000000  0.213117000000  
0.231999000000  0.582449000000  0.226304000000  
0.196402000000  0.525063000000  0.230630000000  
0.191671000000  0.512720000000  0.245545000000  
0.223947000000  0.572528000000  0.252902000000  
0.223902000000  0.572468000000  0.266765000000  
0.191819000000  0.513145000000  0.274107000000  
0.196412000000  0.525087000000  0.288955000000  
0.231292000000  0.581624000000  0.293440000000  
0.231237000000  0.581559000000  0.306739000000  
0.196163000000  0.524490000000  0.311189000000  
0.191692000000  0.512780000000  0.325978000000  
0.223435000000  0.571855000000  0.333266000000  
0.223596000000  0.572068000000  0.347095000000  
0.191515000000  0.512272000000  0.354517000000  
0.196045000000  0.524207000000  0.369530000000  
0.231314000000  0.581650000000  0.373878000000  
0.232746000000  0.583312000000  0.386866000000  
0.197214000000  0.526971000000  0.392103000000  
0.197342000000  0.361620000000  0.208089000000  
0.182614000000  0.412312000000  0.218882000000  
0.641014000000  0.412944000000  0.218894000000  
0.196300000000  0.364069000000  0.230616000000  
0.191638000000  0.376263000000  0.245589000000  
0.643427000000  0.444154000000  0.251977000000  
0.643426000000  0.443896000000  0.267695000000  
0.191655000000  0.376214000000  0.274307000000  
0.196077000000  0.364604000000  0.289059000000  
0.182572000000  0.412584000000  0.300096000000  
0.640925000000  0.412375000000  0.300107000000  
0.196060000000  0.364645000000  0.311196000000  
0.191488000000  0.376697000000  0.325956000000  
0.643426000000  0.443819000000  0.332446000000  
0.643426000000  0.443892000000  0.348155000000  
0.191418000000  0.376900000000  0.354631000000  
0.196183000000  0.364349000000  0.369776000000  
0.182509000000  0.412988000000  0.381471000000  
0.640948000000  0.412520000000  0.381341000000  
0.197309000000  0.361697000000  0.392448000000  
0.281241000000  0.263685000000  0.206920000000  
0.232939000000  0.305355000000  0.213311000000  
0.231353000000  0.307193000000  0.226456000000  
0.277786000000  0.265954000000  0.233216000000  
0.275593000000  0.267440000000  0.246655000000  
0.223964000000  0.316339000000  0.253069000000  
0.223870000000  0.316463000000  0.266972000000  
0.276350000000  0.266923000000  0.273463000000  
0.278321000000  0.265596000000  0.286933000000  
0.231159000000  0.307421000000  0.293594000000  
0.231437000000  0.307095000000  0.306591000000  
0.277921000000  0.265863000000  0.313305000000  
0.275644000000  0.267405000000  0.326628000000  
0.223483000000  0.316971000000  0.333209000000  
0.223603000000  0.316813000000  0.347096000000  
0.275847000000  0.267267000000  0.353447000000  
0.278316000000  0.265600000000  0.366982000000  
0.231304000000  0.307251000000  0.373980000000  
0.232756000000  0.305565000000  0.387248000000  
0.280926000000  0.263888000000  0.393492000000  
0.411536000000  0.225652000000  0.206703000000  
0.342354000000  0.235704000000  0.213165000000  
0.341922000000  0.235832000000  0.226878000000  
0.411592000000  0.225652000000  0.233429000000  
0.411869000000  0.225652000000  0.246658000000  
0.339537000000  0.236558000000  0.253386000000  
0.339564000000  0.236550000000  0.266679000000  
0.411665000000  0.225652000000  0.273303000000  
0.411858000000  0.225652000000  0.286661000000  
0.341790000000  0.235872000000  0.293244000000  
0.341980000000  0.235815000000  0.306915000000  
0.411627000000  0.225652000000  0.313507000000  
0.411411000000  0.225652000000  0.326750000000  
0.339371000000  0.236609000000  0.333401000000  
0.339065000000  0.236705000000  0.346655000000  
0.411505000000  0.225652000000  0.353328000000  
0.411687000000  0.225652000000  0.366551000000  
0.342176000000  0.235756000000  0.373108000000  
0.343045000000  0.235500000000  0.386985000000  
0.411610000000  0.225652000000  0.393320000000  
0.541970000000  0.263480000000  0.206711000000  
0.479965000000  0.235348000000  0.213105000000  
0.480369000000  0.235466000000  0.226803000000  
0.544670000000  0.265240000000  0.233090000000  
0.547092000000  0.266864000000  0.246436000000  
0.483407000000  0.236377000000  0.253229000000  
0.483584000000  0.236432000000  0.266605000000  
0.547096000000  0.266867000000  0.273306000000  
0.545077000000  0.265509000000  0.286789000000  
0.481825000000  0.235897000000  0.293260000000  
0.481962000000  0.235939000000  0.306934000000  
0.546072000000  0.266174000000  0.313299000000  
0.547961000000  0.267457000000  0.326726000000  
0.483643000000  0.236450000000  0.333482000000  
0.483641000000  0.236449000000  0.346678000000  
0.547536000000  0.267166000000  0.353512000000  
0.545070000000  0.265505000000  0.366955000000  
0.480928000000  0.235630000000  0.373143000000  
0.480143000000  0.235400000000  0.386869000000  
0.542220000000  0.263641000000  0.393226000000  
0.626172000000  0.361587000000  0.207819000000  
0.590299000000  0.305021000000  0.213117000000  
0.591531000000  0.306440000000  0.226304000000  
0.627127000000  0.363826000000  0.230630000000  
0.631859000000  0.376168000000  0.245545000000  
0.599582000000  0.316361000000  0.252902000000  
0.599628000000  0.316421000000  0.266765000000  
0.631711000000  0.375744000000  0.274107000000  
0.627117000000  0.363801000000  0.288955000000  
0.592237000000  0.307265000000  0.293440000000  
0.592292000000  0.307329000000  0.306739000000  
0.627367000000  0.364399000000  0.311189000000  
0.631838000000  0.376109000000  0.325978000000  
0.600094000000  0.317034000000  0.333266000000  
0.599933000000  0.316821000000  0.347095000000  
0.632014000000  0.376616000000  0.354517000000  
0.627484000000  0.364682000000  0.369530000000  
0.592215000000  0.307239000000  0.373878000000  
0.590784000000  0.305577000000  0.386866000000  
0.626316000000  0.361918000000  0.392103000000  
0.626187000000  0.527269000000  0.408089000000  
0.640915000000  0.476576000000  0.418882000000  
0.182516000000  0.475945000000  0.418894000000  
0.627229000000  0.524820000000  0.430616000000  
0.631892000000  0.512626000000  0.445589000000  
0.180102000000  0.444735000000  0.451977000000  
0.180103000000  0.444993000000  0.467695000000  
0.631875000000  0.512675000000  0.474307000000  
0.627452000000  0.524285000000  0.489059000000  
0.640958000000  0.476305000000  0.500096000000  
0.182604000000  0.476514000000  0.500107000000  
0.627469000000  0.524244000000  0.511196000000  
0.632042000000  0.512192000000  0.525956000000  
0.180103000000  0.445070000000  0.532446000000  
0.180103000000  0.444997000000  0.548155000000  
0.632112000000  0.511989000000  0.554631000000  
0.627346000000  0.524540000000  0.569776000000  
0.641020000000  0.475901000000  0.581471000000  
0.182582000000  0.476369000000  0.581341000000  
0.626220000000  0.527192000000  0.592448000000  
0.542289000000  0.625204000000  0.406920000000  
0.590590000000  0.583534000000  0.413311000000  
0.592176000000  0.581696000000  0.426456000000  
0.545744000000  0.622935000000  0.433216000000  
0.547936000000  0.621449000000  0.446655000000  
0.599565000000  0.572550000000  0.453069000000  
0.599660000000  0.572426000000  0.466972000000  
0.547179000000  0.621966000000  0.473463000000  
0.545208000000  0.623292000000  0.486933000000  
0.592370000000  0.581468000000  0.493594000000  
0.592092000000  0.581794000000  0.506591000000  
0.545608000000  0.623026000000  0.513305000000  
0.547885000000  0.621484000000  0.526628000000  
0.600047000000  0.571918000000  0.533209000000  
0.599926000000  0.572076000000  0.547096000000  
0.547683000000  0.621622000000  0.553447000000  
0.545213000000  0.623289000000  0.566982000000  
0.592225000000  0.581638000000  0.573980000000  
0.590773000000  0.583324000000  0.587248000000  
0.542603000000  0.625001000000  0.593492000000  
0.411994000000  0.663237000000  0.406703000000  
0.481176000000  0.653185000000  0.413165000000  
0.481607000000  0.653057000000  0.426878000000  
0.411938000000  0.663237000000  0.433429000000  
0.411660000000  0.663237000000  0.446658000000  
0.483993000000  0.652331000000  0.453386000000  
0.483965000000  0.652339000000  0.466679000000  
0.411864000000  0.663237000000  0.473303000000  
0.411671000000  0.663237000000  0.486661000000  
0.481739000000  0.653017000000  0.493244000000  
0.481549000000  0.653074000000  0.506915000000  
0.411902000000  0.663237000000  0.513507000000  
0.412119000000  0.663237000000  0.526750000000  
0.484158000000  0.652279000000  0.533401000000  
0.484464000000  0.652184000000  0.546655000000  
0.412025000000  0.663237000000  0.553328000000  
0.411843000000  0.663237000000  0.566551000000  
0.481353000000  0.653132000000  0.573108000000  
0.480485000000  0.653389000000  0.586985000000  
0.411919000000  0.663237000000  0.593320000000  
0.281560000000  0.625409000000  0.406711000000  
0.343564000000  0.653541000000  0.413105000000  
0.343161000000  0.653423000000  0.426803000000  
0.278859000000  0.623649000000  0.433090000000  
0.276437000000  0.622025000000  0.446436000000  
0.340123000000  0.652512000000  0.453229000000  
0.339945000000  0.652457000000  0.466605000000  
0.276433000000  0.622022000000  0.473306000000  
0.278453000000  0.623380000000  0.486789000000  
0.341705000000  0.652992000000  0.493260000000  
0.341567000000  0.652950000000  0.506934000000  
0.277458000000  0.622715000000  0.513299000000  
0.275568000000  0.621432000000  0.526726000000  
0.339886000000  0.652439000000  0.533482000000  
0.339888000000  0.652440000000  0.546678000000  
0.275993000000  0.621723000000  0.553512000000  
0.278459000000  0.623384000000  0.566955000000  
0.342602000000  0.653259000000  0.573143000000  
0.343386000000  0.653489000000  0.586869000000  
0.281309000000  0.625248000000  0.593226000000  
0.197357000000  0.527302000000  0.407819000000  
0.233231000000  0.583868000000  0.413117000000  
0.231999000000  0.582449000000  0.426304000000  
0.196402000000  0.525063000000  0.430630000000  
0.191671000000  0.512720000000  0.445545000000  
0.223947000000  0.572528000000  0.452902000000  
0.223902000000  0.572468000000  0.466765000000  
0.191819000000  0.513145000000  0.474107000000  
0.196412000000  0.525087000000  0.488955000000  
0.231292000000  0.581624000000  0.493440000000  
0.231237000000  0.581559000000  0.506739000000  
0.196163000000  0.524490000000  0.511189000000  
0.191692000000  0.512780000000  0.525978000000  
0.223435000000  0.571855000000  0.533266000000  
0.223596000000  0.572068000000  0.547095000000  
0.191515000000  0.512272000000  0.554517000000  
0.196045000000  0.524207000000  0.569530000000  
0.231314000000  0.581650000000  0.573878000000  
0.232746000000  0.583312000000  0.586866000000  
0.197214000000  0.526971000000  0.592103000000  
0.197342000000  0.361620000000  0.408089000000  
0.182614000000  0.412312000000  0.418882000000  
0.641014000000  0.412944000000  0.418894000000  
0.196300000000  0.364069000000  0.430616000000  
0.191638000000  0.376263000000  0.445589000000  
0.643427000000  0.444154000000  0.451977000000  
0.643426000000  0.443896000000  0.467695000000  
0.191655000000  0.376214000000  0.474307000000  
0.196077000000  0.364604000000  0.489059000000  
0.182572000000  0.412584000000  0.500096000000  
0.640925000000  0.412375000000  0.500107000000  
0.196060000000  0.364645000000  0.511196000000  
0.191488000000  0.376697000000  0.525956000000  
0.643426000000  0.443819000000  0.532446000000  
0.643426000000  0.443892000000  0.548155000000  
0.191418000000  0.376900000000  0.554631000000  
0.196183000000  0.364349000000  0.569776000000  
0.182509000000  0.412988000000  0.581471000000  
0.640948000000  0.412520000000  0.581341000000  
0.197309000000  0.361697000000  0.592448000000  
0.281241000000  0.263685000000  0.406920000000  
0.232939000000  0.305355000000  0.413311000000  
0.231353000000  0.307193000000  0.426456000000  
0.277786000000  0.265954000000  0.433216000000  
0.275593000000  0.267440000000  0.446655000000  
0.223964000000  0.316339000000  0.453069000000  
0.223870000000  0.316463000000  0.466972000000  
0.276350000000  0.266923000000  0.473463000000  
0.278321000000  0.265596000000  0.486933000000  
0.231159000000  0.307421000000  0.493594000000  
0.231437000000  0.307095000000  0.506591000000  
0.277921000000  0.265863000000  0.513305000000  
0.275644000000  0.267405000000  0.526628000000  
0.223483000000  0.316971000000  0.533209000000  
0.223603000000  0.316813000000  0.547096000000  
0.275847000000  0.267267000000  0.553447000000  
0.278316000000  0.265600000000  0.566982000000  
0.231304000000  0.307251000000  0.573980000000  
0.232756000000  0.305565000000  0.587248000000  
0.280926000000  0.263888000000  0.593492000000  
0.411536000000  0.225652000000  0.406703000000  
0.342354000000  0.235704000000  0.413165000000  
0.341922000000  0.235832000000  0.426878000000  
0.411592000000  0.225652000000  0.433429000000  
0.411869000000  0.225652000000  0.446658000000  
0.339537000000  0.236558000000  0.453386000000  
0.339564000000  0.236550000000  0.466679000000  
0.411665000000  0.225652000000  0.473303000000  
0.411858000000  0.225652000000  0.486661000000  
0.341790000000  0.235872000000  0.493244000000  
0.341980000000  0.235815000000  0.506915000000  
0.411627000000  0.225652000000  0.513507000000  
0.411411000000  0.225652000000  0.526750000000  
0.339371000000  0.236609000000  0.533401000000  
0.339065000000  0.236705000000  0.546655000000  
0.411505000000  0.225652000000  0.553328000000  
0.411687000000  0.225652000000  0.566551000000  
0.342176000000  0.235756000000  0.573108000000  
0.343045000000  0.235500000000  0.586985000000  
0.411610000000  0.225652000000  0.593320000000  
0.541970000000  0.263480000000  0.406711000000  
0.479965000000  0.235348000000  0.413105000000  
0.480369000000  0.235466000000  0.426803000000  
0.544670000000  0.265240000000  0.433090000000  
0.547092000000  0.266864000000  0.446436000000  
0.483407000000  0.236377000000  0.453229000000  
0.483584000000  0.236432000000  0.466605000000  
0.547096000000  0.266867000000  0.473306000000  
0.545077000000  0.265509000000  0.486789000000  
0.481825000000  0.235897000000  0.493260000000  
0.481962000000  0.235939000000  0.506934000000  
0.546072000000  0.266174000000  0.513299000000  
0.547961000000  0.267457000000  0.526726000000  
0.483643000000  0.236450000000  0.533482000000  
0.483641000000  0.236449000000  0.546678000000  
0.547536000000  0.267166000000  0.553512000000  
0.545070000000  0.265505000000  0.566955000000  
0.480928000000  0.235630000000  0.573143000000  
0.480143000000  0.235400000000  0.586869000000  
0.542220000000  0.263641000000  0.593226000000  
0.626172000000  0.361587000000  0.407819000000  
0.590299000000  0.305021000000  0.413117000000  
0.591531000000  0.306440000000  0.426304000000  
0.627127000000  0.363826000000  0.430630000000  
0.631859000000  0.376168000000  0.445545000000  
0.599582000000  0.316361000000  0.452902000000  
0.599628000000  0.316421000000  0.466765000000  
0.631711000000  0.375744000000  0.474107000000  
0.627117000000  0.363801000000  0.488955000000  
0.592237000000  0.307265000000  0.493440000000  
0.592292000000  0.307329000000  0.506739000000  
0.627367000000  0.364399000000  0.511189000000  
0.631838000000  0.376109000000  0.525978000000  
0.600094000000  0.317034000000  0.533266000000  
0.599933000000  0.316821000000  0.547095000000  
0.632014000000  0.376616000000  0.554517000000  
0.627484000000  0.364682000000  0.569530000000  
0.592215000000  0.307239000000  0.573878000000  
0.590784000000  0.305577000000  0.586866000000  
0.626316000000  0.361918000000  0.592103000000  
0.626187000000  0.527269000000  0.608089000000  
0.640915000000  0.476576000000  0.618882000000  
0.182516000000  0.475945000000  0.618894000000  
0.627229000000  0.524820000000  0.630616000000  
0.631892000000  0.512626000000  0.645589000000  
0.180102000000  0.444735000000  0.651977000000  
0.180103000000  0.444993000000  0.667695000000  
0.631875000000  0.512675000000  0.674307000000  