ATOMIC_SPECIES
C 12.011 C_ONCV_PBE-1.0.upf

NUMERICAL_ORBITAL
C_gga_8au_60Ry_2s2p1d.orb

LATTICE_CONSTANT
1

LATTICE_VECTORS
32.1253418058417  0.00000000000000  0.000000000000000
0.00000000000000  34.0150677944206  0.000000000000000
0.00000000000000  0.00000000000000  202.4808987961612

ATOMIC_POSITIONS
Direct

C
0
1000
0.6261870000  0.5272690000  0.0080890000  1  1  1
0.6409150000  0.4765760000  0.0188820000  1  1  1
0.1825160000  0.4759450000  0.0188940000  1  1  1
0.6272290000  0.5248200000  0.0306160000  1  1  1
0.6318920000  0.5126260000  0.0455890000  1  1  1
0.1801020000  0.4447350000  0.0519770000  1  1  1
0.1801030000  0.4449930000  0.0676950000  1  1  1
0.6318750000  0.5126750000  0.0743070000  1  1  1
0.6274520000  0.5242850000  0.0890590000  1  1  1
0.6409580000  0.4763050000  0.1000960000  1  1  1
0.1826040000  0.4765140000  0.1001070000  1  1  1
0.6274690000  0.5242440000  0.1111960000  1  1  1
0.6320420000  0.5121920000  0.1259560000  1  1  1
0.1801030000  0.4450700000  0.1324460000  1  1  1
0.1801030000  0.4449970000  0.1481550000  1  1  1
0.6321120000  0.5119890000  0.1546310000  1  1  1
0.6273460000  0.5245400000  0.1697760000  1  1  1
0.6410200000  0.4759010000  0.1814710000  1  1  1
0.1825820000  0.4763690000  0.1813410000  1  1  1
0.6262200000  0.5271920000  0.1924480000  1  1  1
0.5422890000  0.6252040000  0.0069200000  1  1  1
0.5905900000  0.5835340000  0.0133110000  1  1  1
0.5921760000  0.5816960000  0.0264560000  1  1  1
0.5457440000  0.6229350000  0.0332160000  1  1  1
0.5479360000  0.6214490000  0.0466550000  1  1  1
0.5995650000  0.5725500000  0.0530690000  1  1  1
0.5996600000  0.5724260000  0.0669720000  1  1  1
0.5471790000  0.6219660000  0.0734630000  1  1  1
0.5452080000  0.6232920000  0.0869330000  1  1  1
0.5923700000  0.5814680000  0.0935940000  1  1  1
0.5920920000  0.5817940000  0.1065910000  1  1  1
0.5456080000  0.6230260000  0.1133050000  1  1  1
0.5478850000  0.6214840000  0.1266280000  1  1  1
0.6000470000  0.5719180000  0.1332090000  1  1  1
0.5999260000  0.5720760000  0.1470960000  1  1  1
0.5476830000  0.6216220000  0.1534470000  1  1  1
0.5452130000  0.6232890000  0.1669820000  1  1  1
0.5922250000  0.5816380000  0.1739800000  1  1  1
0.5907730000  0.5833240000  0.1872480000  1  1  1
0.5426030000  0.6250010000  0.1934920000  1  1  1
0.4119940000  0.6632370000  0.0067030000  1  1  1
0.4811760000  0.6531850000  0.0131650000  1  1  1
0.4816070000  0.6530570000  0.0268780000  1  1  1
0.4119380000  0.6632370000  0.0334290000  1  1  1
0.4116600000  0.6632370000  0.0466580000  1  1  1
0.4839930000  0.6523310000  0.0533860000  1  1  1
0.4839650000  0.6523390000  0.0666790000  1  1  1
0.4118640000  0.6632370000  0.0733030000  1  1  1
0.4116710000  0.6632370000  0.0866610000  1  1  1
0.4817390000  0.6530170000  0.0932440000  1  1  1
0.4815490000  0.6530740000  0.1069150000  1  1  1
0.4119020000  0.6632370000  0.1135070000  1  1  1
0.4121190000  0.6632370000  0.1267500000  1  1  1
0.4841580000  0.6522790000  0.1334010000  1  1  1
0.4844640000  0.6521840000  0.1466550000  1  1  1
0.4120250000  0.6632370000  0.1533280000  1  1  1
0.4118430000  0.6632370000  0.1665510000  1  1  1
0.4813530000  0.6531320000  0.1731080000  1  1  1
0.4804850000  0.6533890000  0.1869850000  1  1  1
0.4119190000  0.6632370000  0.1933200000  1  1  1
0.2815600000  0.6254090000  0.0067110000  1  1  1
0.3435640000  0.6535410000  0.0131040000  1  1  1
0.3431610000  0.6534230000  0.0268030000  1  1  1
0.2788590000  0.6236490000  0.0330900000  1  1  1
0.2764370000  0.6220250000  0.0464360000  1  1  1
0.3401230000  0.6525120000  0.0532290000  1  1  1
0.3399450000  0.6524570000  0.0666050000  1  1  1
0.2764330000  0.6220220000  0.0733060000  1  1  1
0.2784530000  0.6233800000  0.0867890000  1  1  1
0.3417050000  0.6529920000  0.0932600000  1  1  1
0.3415670000  0.6529500000  0.1069340000  1  1  1
0.2774580000  0.6227150000  0.1132990000  1  1  1
0.2755680000  0.6214320000  0.1267260000  1  1  1
0.3398860000  0.6524390000  0.1334820000  1  1  1
0.3398880000  0.6524400000  0.1466780000  1  1  1
0.2759930000  0.6217230000  0.1535120000  1  1  1
0.2784590000  0.6233840000  0.1669550000  1  1  1
0.3426020000  0.6532590000  0.1731430000  1  1  1
0.3433860000  0.6534890000  0.1868690000  1  1  1
0.2813090000  0.6252480000  0.1932260000  1  1  1
0.1973570000  0.5273020000  0.0078190000  1  1  1
0.2332310000  0.5838680000  0.0131170000  1  1  1
0.2319990000  0.5824490000  0.0263040000  1  1  1
0.1964020000  0.5250630000  0.0306300000  1  1  1
0.1916710000  0.5127200000  0.0455450000  1  1  1
0.2239470000  0.5725280000  0.0529020000  1  1  1
0.2239020000  0.5724680000  0.0667650000  1  1  1
0.1918190000  0.5131450000  0.0741070000  1  1  1
0.1964120000  0.5250870000  0.0889550000  1  1  1
0.2312920000  0.5816240000  0.0934400000  1  1  1
0.2312370000  0.5815590000  0.1067390000  1  1  1
0.1961630000  0.5244900000  0.1111890000  1  1  1
0.1916920000  0.5127800000  0.1259780000  1  1  1
0.2234350000  0.5718550000  0.1332660000  1  1  1
0.2235960000  0.5720680000  0.1470950000  1  1  1
0.1915150000  0.5122720000  0.1545170000  1  1  1
0.1960450000  0.5242070000  0.1695300000  1  1  1
0.2313140000  0.5816500000  0.1738780000  1  1  1
0.2327460000  0.5833120000  0.1868660000  1  1  1
0.1972140000  0.5269710000  0.1921030000  1  1  1
0.1973420000  0.3616200000  0.0080890000  1  1  1
0.1826140000  0.4123120000  0.0188820000  1  1  1
0.6410140000  0.4129440000  0.0188940000  1  1  1
0.1963000000  0.3640690000  0.0306160000  1  1  1
0.1916380000  0.3762630000  0.0455890000  1  1  1
0.6434270000  0.4441540000  0.0519770000  1  1  1
0.6434260000  0.4438960000  0.0676950000  1  1  1
0.1916550000  0.3762140000  0.0743070000  1  1  1
0.1960770000  0.3646040000  0.0890590000  1  1  1
0.1825720000  0.4125840000  0.1000960000  1  1  1
0.6409250000  0.4123750000  0.1001070000  1  1  1
0.1960600000  0.3646450000  0.1111960000  1  1  1
0.1914880000  0.3766970000  0.1259560000  1  1  1
0.6434260000  0.4438190000  0.1324460000  1  1  1
0.6434260000  0.4438920000  0.1481550000  1  1  1
0.1914180000  0.3769000000  0.1546310000  1  1  1
0.1961830000  0.3643490000  0.1697760000  1  1  1
0.1825090000  0.4129880000  0.1814710000  1  1  1
0.6409480000  0.4125200000  0.1813410000  1  1  1
0.1973090000  0.3616970000  0.1924480000  1  1  1
0.2812410000  0.2636850000  0.0069200000  1  1  1
0.2329390000  0.3053550000  0.0133110000  1  1  1
0.2313530000  0.3071930000  0.0264560000  1  1  1
0.2777860000  0.2659540000  0.0332160000  1  1  1
0.2755930000  0.2674400000  0.0466550000  1  1  1
0.2239640000  0.3163390000  0.0530690000  1  1  1
0.2238700000  0.3164630000  0.0669720000  1  1  1
0.2763500000  0.2669230000  0.0734630000  1  1  1
0.2783210000  0.2655960000  0.0869330000  1  1  1
0.2311590000  0.3074210000  0.0935940000  1  1  1
0.2314370000  0.3070950000  0.1065910000  1  1  1
0.2779210000  0.2658630000  0.1133050000  1  1  1
0.2756440000  0.2674050000  0.1266280000  1  1  1
0.2234830000  0.3169710000  0.1332090000  1  1  1
0.2236030000  0.3168130000  0.1470960000  1  1  1
0.2758470000  0.2672670000  0.1534470000  1  1  1
0.2783160000  0.2656000000  0.1669820000  1  1  1
0.2313040000  0.3072510000  0.1739800000  1  1  1
0.2327560000  0.3055650000  0.1872480000  1  1  1
0.2809260000  0.2638880000  0.1934920000  1  1  1
0.4115360000  0.2256520000  0.0067030000  1  1  1
0.3423540000  0.2357040000  0.0131650000  1  1  1
0.3419220000  0.2358320000  0.0268780000  1  1  1
0.4115920000  0.2256520000  0.0334290000  1  1  1
0.4118690000  0.2256520000  0.0466580000  1  1  1
0.3395370000  0.2365580000  0.0533860000  1  1  1
0.3395640000  0.2365500000  0.0666790000  1  1  1
0.4116650000  0.2256520000  0.0733030000  1  1  1
0.4118580000  0.2256520000  0.0866610000  1  1  1
0.3417900000  0.2358720000  0.0932440000  1  1  1
0.3419800000  0.2358150000  0.1069150000  1  1  1
0.4116270000  0.2256520000  0.1135070000  1  1  1
0.4114110000  0.2256520000  0.1267500000  1  1  1
0.3393710000  0.2366090000  0.1334010000  1  1  1
0.3390650000  0.2367050000  0.1466550000  1  1  1
0.4115050000  0.2256520000  0.1533280000  1  1  1
0.4116870000  0.2256520000  0.1665510000  1  1  1
0.3421760000  0.2357560000  0.1731080000  1  1  1
0.3430450000  0.2355000000  0.1869850000  1  1  1
0.4116100000  0.2256520000  0.1933200000  1  1  1
0.5419700000  0.2634800000  0.0067110000  1  1  1
0.4799650000  0.2353480000  0.0131040000  1  1  1
0.4803690000  0.2354660000  0.0268030000  1  1  1
0.5446700000  0.2652400000  0.0330900000  1  1  1
0.5470920000  0.2668640000  0.0464360000  1  1  1
0.4834070000  0.2363770000  0.0532290000  1  1  1
0.4835840000  0.2364320000  0.0666050000  1  1  1
0.5470960000  0.2668670000  0.0733060000  1  1  1
0.5450770000  0.2655090000  0.0867890000  1  1  1
0.4818250000  0.2358970000  0.0932600000  1  1  1
0.4819620000  0.2359390000  0.1069340000  1  1  1
0.5460720000  0.2661740000  0.1132990000  1  1  1
0.5479610000  0.2674570000  0.1267260000  1  1  1
0.4836430000  0.2364500000  0.1334820000  1  1  1
0.4836410000  0.2364490000  0.1466780000  1  1  1
0.5475360000  0.2671660000  0.1535120000  1  1  1
0.5450700000  0.2655050000  0.1669550000  1  1  1
0.4809280000  0.2356300000  0.1731430000  1  1  1
0.4801430000  0.2354000000  0.1868690000  1  1  1
0.5422200000  0.2636410000  0.1932260000  1  1  1
0.6261720000  0.3615870000  0.0078190000  1  1  1
0.5902990000  0.3050210000  0.0131170000  1  1  1
0.5915310000  0.3064400000  0.0263040000  1  1  1
0.6271270000  0.3638260000  0.0306300000  1  1  1
0.6318590000  0.3761680000  0.0455450000  1  1  1
0.5995820000  0.3163610000  0.0529020000  1  1  1
0.5996280000  0.3164210000  0.0667650000  1  1  1
0.6317110000  0.3757440000  0.0741070000  1  1  1
0.6271170000  0.3638010000  0.0889550000  1  1  1
0.5922370000  0.3072650000  0.0934400000  1  1  1
0.5922920000  0.3073290000  0.1067390000  1  1  1
0.6273670000  0.3643990000  0.1111890000  1  1  1
0.6318380000  0.3761090000  0.1259780000  1  1  1
0.6000940000  0.3170340000  0.1332660000  1  1  1
0.5999330000  0.3168210000  0.1470950000  1  1  1
0.6320140000  0.3766160000  0.1545170000  1  1  1
0.6274840000  0.3646820000  0.1695300000  1  1  1
0.5922150000  0.3072390000  0.1738780000  1  1  1
0.5907840000  0.3055770000  0.1868660000  1  1  1
0.6263160000  0.3619180000  0.1921030000  1  1  1
0.6261870000  0.5272690000  0.2080890000  1  1  1
0.6409150000  0.4765760000  0.2188820000  1  1  1
0.1825160000  0.4759450000  0.2188940000  1  1  1
0.6272290000  0.5248200000  0.2306160000  1  1  1
0.6318920000  0.5126260000  0.2455890000  1  1  1
0.1801020000  0.4447350000  0.2519770000  1  1  1
0.1801030000  0.4449930000  0.2676950000  1  1  1
0.6318750000  0.5126750000  0.2743070000  1  1  1
0.6274520000  0.5242850000  0.2890590000  1  1  1
0.6409580000  0.4763050000  0.3000960000  1  1  1
0.1826040000  0.4765140000  0.3001070000  1  1  1
0.6274690000  0.5242440000  0.3111960000  1  1  1
0.6320420000  0.5121920000  0.3259560000  1  1  1
0.1801030000  0.4450700000  0.3324460000  1  1  1
0.1801030000  0.4449970000  0.3481550000  1  1  1
0.6321120000  0.5119890000  0.3546310000  1  1  1
0.6273460000  0.5245400000  0.3697760000  1  1  1
0.6410200000  0.4759010000  0.3814710000  1  1  1
0.1825820000  0.4763690000  0.3813410000  1  1  1
0.6262200000  0.5271920000  0.3924480000  1  1  1
0.5422890000  0.6252040000  0.2069200000  1  1  1
0.5905900000  0.5835340000  0.2133110000  1  1  1
0.5921760000  0.5816960000  0.2264560000  1  1  1
0.5457440000  0.6229350000  0.2332160000  1  1  1
0.5479360000  0.6214490000  0.2466550000  1  1  1
0.5995650000  0.5725500000  0.2530690000  1  1  1
0.5996600000  0.5724260000  0.2669720000  1  1  1
0.5471790000  0.6219660000  0.2734630000  1  1  1
0.5452080000  0.6232920000  0.2869330000  1  1  1
0.5923700000  0.5814680000  0.2935940000  1  1  1
0.5920920000  0.5817940000  0.3065910000  1  1  1
0.5456080000  0.6230260000  0.3133050000  1  1  1
0.5478850000  0.6214840000  0.3266280000  1  1  1
0.6000470000  0.5719180000  0.3332090000  1  1  1
0.5999260000  0.5720760000  0.3470960000  1  1  1
0.5476830000  0.6216220000  0.3534470000  1  1  1
0.5452130000  0.6232890000  0.3669820000  1  1  1
0.5922250000  0.5816380000  0.3739800000  1  1  1
0.5907730000  0.5833240000  0.3872480000  1  1  1
0.5426030000  0.6250010000  0.3934920000  1  1  1
0.4119940000  0.6632370000  0.2067030000  1  1  1
0.4811760000  0.6531850000  0.2131650000  1  1  1
0.4816070000  0.6530570000  0.2268780000  1  1  1
0.4119380000  0.6632370000  0.2334290000  1  1  1
0.4116600000  0.6632370000  0.2466580000  1  1  1
0.4839930000  0.6523310000  0.2533860000  1  1  1
0.4839650000  0.6523390000  0.2666790000  1  1  1
0.4118640000  0.6632370000  0.2733030000  1  1  1
0.4116710000  0.6632370000  0.2866610000  1  1  1
0.4817390000  0.6530170000  0.2932440000  1  1  1
0.4815490000  0.6530740000  0.3069150000  1  1  1
0.4119020000  0.6632370000  0.3135070000  1  1  1
0.4121190000  0.6632370000  0.3267500000  1  1  1
0.4841580000  0.6522790000  0.3334010000  1  1  1
0.4844640000  0.6521840000  0.3466550000  1  1  1
0.4120250000  0.6632370000  0.3533280000  1  1  1
0.4118430000  0.6632370000  0.3665510000  1  1  1
0.4813530000  0.6531320000  0.3731080000  1  1  1
0.4804850000  0.6533890000  0.3869850000  1  1  1
0.4119190000  0.6632370000  0.3933200000  1  1  1
0.2815600000  0.6254090000  0.2067110000  1  1  1
0.3435640000  0.6535410000  0.2131050000  1  1  1
0.3431610000  0.6534230000  0.2268030000  1  1  1
0.2788590000  0.6236490000  0.2330900000  1  1  1
0.2764370000  0.6220250000  0.2464360000  1  1  1
0.3401230000  0.6525120000  0.2532290000  1  1  1
0.3399450000  0.6524570000  0.2666050000  1  1  1
0.2764330000  0.6220220000  0.2733060000  1  1  1
0.2784530000  0.6233800000  0.2867890000  1  1  1
0.3417050000  0.6529920000  0.2932600000  1  1  1
0.3415670000  0.6529500000  0.3069340000  1  1  1
0.2774580000  0.6227150000  0.3132990000  1  1  1
0.2755680000  0.6214320000  0.3267260000  1  1  1
0.3398860000  0.6524390000  0.3334820000  1  1  1
0.3398880000  0.6524400000  0.3466780000  1  1  1
0.2759930000  0.6217230000  0.3535120000  1  1  1
0.2784590000  0.6233840000  0.3669550000  1  1  1
0.3426020000  0.6532590000  0.3731430000  1  1  1
0.3433860000  0.6534890000  0.3868690000  1  1  1
0.2813090000  0.6252480000  0.3932260000  1  1  1
0.1973570000  0.5273020000  0.2078190000  1  1  1
0.2332310000  0.5838680000  0.2131170000  1  1  1
0.2319990000  0.5824490000  0.2263040000  1  1  1
0.1964020000  0.5250630000  0.2306300000  1  1  1
0.1916710000  0.5127200000  0.2455450000  1  1  1
0.2239470000  0.5725280000  0.2529020000  1  1  1
0.2239020000  0.5724680000  0.2667650000  1  1  1
0.1918190000  0.5131450000  0.2741070000  1  1  1
0.1964120000  0.5250870000  0.2889550000  1  1  1
0.2312920000  0.5816240000  0.2934400000  1  1  1
0.2312370000  0.5815590000  0.3067390000  1  1  1
0.1961630000  0.5244900000  0.3111890000  1  1  1
0.1916920000  0.5127800000  0.3259780000  1  1  1
0.2234350000  0.5718550000  0.3332660000  1  1  1
0.2235960000  0.5720680000  0.3470950000  1  1  1
0.1915150000  0.5122720000  0.3545170000  1  1  1
0.1960450000  0.5242070000  0.3695300000  1  1  1
0.2313140000  0.5816500000  0.3738780000  1  1  1
0.2327460000  0.5833120000  0.3868660000  1  1  1
0.1972140000  0.5269710000  0.3921030000  1  1  1
0.1973420000  0.3616200000  0.2080890000  1  1  1
0.1826140000  0.4123120000  0.2188820000  1  1  1
0.6410140000  0.4129440000  0.2188940000  1  1  1
0.1963000000  0.3640690000  0.2306160000  1  1  1
0.1916380000  0.3762630000  0.2455890000  1  1  1
0.6434270000  0.4441540000  0.2519770000  1  1  1
0.6434260000  0.4438960000  0.2676950000  1  1  1
0.1916550000  0.3762140000  0.2743070000  1  1  1
0.1960770000  0.3646040000  0.2890590000  1  1  1
0.1825720000  0.4125840000  0.3000960000  1  1  1
0.6409250000  0.4123750000  0.3001070000  1  1  1
0.1960600000  0.3646450000  0.3111960000  1  1  1
0.1914880000  0.3766970000  0.3259560000  1  1  1
0.6434260000  0.4438190000  0.3324460000  1  1  1
0.6434260000  0.4438920000  0.3481550000  1  1  1
0.1914180000  0.3769000000  0.3546310000  1  1  1
0.1961830000  0.3643490000  0.3697760000  1  1  1
0.1825090000  0.4129880000  0.3814710000  1  1  1
0.6409480000  0.4125200000  0.3813410000  1  1  1
0.1973090000  0.3616970000  0.3924480000  1  1  1
0.2812410000  0.2636850000  0.2069200000  1  1  1
0.2329390000  0.3053550000  0.2133110000  1  1  1
0.2313530000  0.3071930000  0.2264560000  1  1  1
0.2777860000  0.2659540000  0.2332160000  1  1  1
0.2755930000  0.2674400000  0.2466550000  1  1  1
0.2239640000  0.3163390000  0.2530690000  1  1  1
0.2238700000  0.3164630000  0.2669720000  1  1  1
0.2763500000  0.2669230000  0.2734630000  1  1  1
0.2783210000  0.2655960000  0.2869330000  1  1  1
0.2311590000  0.3074210000  0.2935940000  1  1  1
0.2314370000  0.3070950000  0.3065910000  1  1  1
0.2779210000  0.2658630000  0.3133050000  1  1  1
0.2756440000  0.2674050000  0.3266280000  1  1  1
0.2234830000  0.3169710000  0.3332090000  1  1  1
0.2236030000  0.3168130000  0.3470960000  1  1  1
0.2758470000  0.2672670000  0.3534470000  1  1  1
0.2783160000  0.2656000000  0.3669820000  1  1  1
0.2313040000  0.3072510000  0.3739800000  1  1  1
0.2327560000  0.3055650000  0.3872480000  1  1  1
0.2809260000  0.2638880000  0.3934920000  1  1  1
0.4115360000  0.2256520000  0.2067030000  1  1  1
0.3423540000  0.2357040000  0.2131650000  1  1  1
0.3419220000  0.2358320000  0.2268780000  1  1  1
0.4115920000  0.2256520000  0.2334290000  1  1  1
0.4118690000  0.2256520000  0.2466580000  1  1  1
0.3395370000  0.2365580000  0.2533860000  1  1  1
0.3395640000  0.2365500000  0.2666790000  1  1  1
0.4116650000  0.2256520000  0.2733030000  1  1  1
0.4118580000  0.2256520000  0.2866610000  1  1  1
0.3417900000  0.2358720000  0.2932440000  1  1  1
0.3419800000  0.2358150000  0.3069150000  1  1  1
0.4116270000  0.2256520000  0.3135070000  1  1  1
0.4114110000  0.2256520000  0.3267500000  1  1  1
0.3393710000  0.2366090000  0.3334010000  1  1  1
0.3390650000  0.2367050000  0.3466550000  1  1  1
0.4115050000  0.2256520000  0.3533280000  1  1  1
0.4116870000  0.2256520000  0.3665510000  1  1  1
0.3421760000  0.2357560000  0.3731080000  1  1  1
0.3430450000  0.2355000000  0.3869850000  1  1  1
0.4116100000  0.2256520000  0.3933200000  1  1  1
0.5419700000  0.2634800000  0.2067110000  1  1  1
0.4799650000  0.2353480000  0.2131050000  1  1  1
0.4803690000  0.2354660000  0.2268030000  1  1  1
0.5446700000  0.2652400000  0.2330900000  1  1  1
0.5470920000  0.2668640000  0.2464360000  1  1  1
0.4834070000  0.2363770000  0.2532290000  1  1  1
0.4835840000  0.2364320000  0.2666050000  1  1  1
0.5470960000  0.2668670000  0.2733060000  1  1  1
0.5450770000  0.2655090000  0.2867890000  1  1  1
0.4818250000  0.2358970000  0.2932600000  1  1  1
0.4819620000  0.2359390000  0.3069340000  1  1  1
0.5460720000  0.2661740000  0.3132990000  1  1  1
0.5479610000  0.2674570000  0.3267260000  1  1  1
0.4836430000  0.2364500000  0.3334820000  1  1  1
0.4836410000  0.2364490000  0.3466780000  1  1  1
0.5475360000  0.2671660000  0.3535120000  1  1  1
0.5450700000  0.2655050000  0.3669550000  1  1  1
0.4809280000  0.2356300000  0.3731430000  1  1  1
0.4801430000  0.2354000000  0.3868690000  1  1  1
0.5422200000  0.2636410000  0.3932260000  1  1  1
0.6261720000  0.3615870000  0.2078190000  1  1  1
0.5902990000  0.3050210000  0.2131170000  1  1  1
0.5915310000  0.3064400000  0.2263040000  1  1  1
0.6271270000  0.3638260000  0.2306300000  1  1  1
0.6318590000  0.3761680000  0.2455450000  1  1  1
0.5995820000  0.3163610000  0.2529020000  1  1  1
0.5996280000  0.3164210000  0.2667650000  1  1  1
0.6317110000  0.3757440000  0.2741070000  1  1  1
0.6271170000  0.3638010000  0.2889550000  1  1  1
0.5922370000  0.3072650000  0.2934400000  1  1  1
0.5922920000  0.3073290000  0.3067390000  1  1  1
0.6273670000  0.3643990000  0.3111890000  1  1  1
0.6318380000  0.3761090000  0.3259780000  1  1  1
0.6000940000  0.3170340000  0.3332660000  1  1  1
0.5999330000  0.3168210000  0.3470950000  1  1  1
0.6320140000  0.3766160000  0.3545170000  1  1  1
0.6274840000  0.3646820000  0.3695300000  1  1  1
0.5922150000  0.3072390000  0.3738780000  1  1  1
0.5907840000  0.3055770000  0.3868660000  1  1  1
0.6263160000  0.3619180000  0.3921030000  1  1  1
0.6261870000  0.5272690000  0.4080890000  1  1  1
0.6409150000  0.4765760000  0.4188820000  1  1  1
0.1825160000  0.4759450000  0.4188940000  1  1  1
0.6272290000  0.5248200000  0.4306160000  1  1  1
0.6318920000  0.5126260000  0.4455890000  1  1  1
0.1801020000  0.4447350000  0.4519770000  1  1  1
0.1801030000  0.4449930000  0.4676950000  1  1  1
0.6318750000  0.5126750000  0.4743070000  1  1  1
0.6274520000  0.5242850000  0.4890590000  1  1  1
0.6409580000  0.4763050000  0.5000960000  1  1  1
0.1826040000  0.4765140000  0.5001070000  1  1  1
0.6274690000  0.5242440000  0.5111960000  1  1  1
0.6320420000  0.5121920000  0.5259560000  1  1  1
0.1801030000  0.4450700000  0.5324460000  1  1  1
0.1801030000  0.4449970000  0.5481550000  1  1  1
0.6321120000  0.5119890000  0.5546310000  1  1  1
0.6273460000  0.5245400000  0.5697760000  1  1  1
0.6410200000  0.4759010000  0.5814710000  1  1  1
0.1825820000  0.4763690000  0.5813410000  1  1  1
0.6262200000  0.5271920000  0.5924480000  1  1  1
0.5422890000  0.6252040000  0.4069200000  1  1  1
0.5905900000  0.5835340000  0.4133110000  1  1  1
0.5921760000  0.5816960000  0.4264560000  1  1  1
0.5457440000  0.6229350000  0.4332160000  1  1  1
0.5479360000  0.6214490000  0.4466550000  1  1  1
0.5995650000  0.5725500000  0.4530690000  1  1  1
0.5996600000  0.5724260000  0.4669720000  1  1  1
0.5471790000  0.6219660000  0.4734630000  1  1  1
0.5452080000  0.6232920000  0.4869330000  1  1  1
0.5923700000  0.5814680000  0.4935940000  1  1  1
0.5920920000  0.5817940000  0.5065910000  1  1  1
0.5456080000  0.6230260000  0.5133050000  1  1  1
0.5478850000  0.6214840000  0.5266280000  1  1  1
0.6000470000  0.5719180000  0.5332090000  1  1  1
0.5999260000  0.5720760000  0.5470960000  1  1  1
0.5476830000  0.6216220000  0.5534470000  1  1  1
0.5452130000  0.6232890000  0.5669820000  1  1  1
0.5922250000  0.5816380000  0.5739800000  1  1  1
0.5907730000  0.5833240000  0.5872480000  1  1  1
0.5426030000  0.6250010000  0.5934920000  1  1  1
0.4119940000  0.6632370000  0.4067030000  1  1  1
0.4811760000  0.6531850000  0.4131650000  1  1  1
0.4816070000  0.6530570000  0.4268780000  1  1  1
0.4119380000  0.6632370000  0.4334290000  1  1  1
0.4116600000  0.6632370000  0.4466580000  1  1  1
0.4839930000  0.6523310000  0.4533860000  1  1  1
0.4839650000  0.6523390000  0.4666790000  1  1  1
0.4118640000  0.6632370000  0.4733030000  1  1  1
0.4116710000  0.6632370000  0.4866610000  1  1  1
0.4817390000  0.6530170000  0.4932440000  1  1  1
0.4815490000  0.6530740000  0.5069150000  1  1  1
0.4119020000  0.6632370000  0.5135070000  1  1  1
0.4121190000  0.6632370000  0.5267500000  1  1  1
0.4841580000  0.6522790000  0.5334010000  1  1  1
0.4844640000  0.6521840000  0.5466550000  1  1  1
0.4120250000  0.6632370000  0.5533280000  1  1  1
0.4118430000  0.6632370000  0.5665510000  1  1  1
0.4813530000  0.6531320000  0.5731080000  1  1  1
0.4804850000  0.6533890000  0.5869850000  1  1  1
0.4119190000  0.6632370000  0.5933200000  1  1  1
0.2815600000  0.6254090000  0.4067110000  1  1  1
0.3435640000  0.6535410000  0.4131050000  1  1  1
0.3431610000  0.6534230000  0.4268030000  1  1  1
0.2788590000  0.6236490000  0.4330900000  1  1  1
0.2764370000  0.6220250000  0.4464360000  1  1  1
0.3401230000  0.6525120000  0.4532290000  1  1  1
0.3399450000  0.6524570000  0.4666050000  1  1  1
0.2764330000  0.6220220000  0.4733060000  1  1  1
0.2784530000  0.6233800000  0.4867890000  1  1  1
0.3417050000  0.6529920000  0.4932600000  1  1  1
0.3415670000  0.6529500000  0.5069340000  1  1  1
0.2774580000  0.6227150000  0.5132990000  1  1  1
0.2755680000  0.6214320000  0.5267260000  1  1  1
0.3398860000  0.6524390000  0.5334820000  1  1  1
0.3398880000  0.6524400000  0.5466780000  1  1  1
0.2759930000  0.6217230000  0.5535120000  1  1  1
0.2784590000  0.6233840000  0.5669550000  1  1  1
0.3426020000  0.6532590000  0.5731430000  1  1  1
0.3433860000  0.6534890000  0.5868690000  1  1  1
0.2813090000  0.6252480000  0.5932260000  1  1  1
0.1973570000  0.5273020000  0.4078190000  1  1  1
0.2332310000  0.5838680000  0.4131170000  1  1  1
0.2319990000  0.5824490000  0.4263040000  1  1  1
0.1964020000  0.5250630000  0.4306300000  1  1  1
0.1916710000  0.5127200000  0.4455450000  1  1  1
0.2239470000  0.5725280000  0.4529020000  1  1  1
0.2239020000  0.5724680000  0.4667650000  1  1  1
0.1918190000  0.5131450000  0.4741070000  1  1  1
0.1964120000  0.5250870000  0.4889550000  1  1  1
0.2312920000  0.5816240000  0.4934400000  1  1  1
0.2312370000  0.5815590000  0.5067390000  1  1  1
0.1961630000  0.5244900000  0.5111890000  1  1  1
0.1916920000  0.5127800000  0.5259780000  1  1  1
0.2234350000  0.5718550000  0.5332660000  1  1  1
0.2235960000  0.5720680000  0.5470950000  1  1  1
0.1915150000  0.5122720000  0.5545170000  1  1  1
0.1960450000  0.5242070000  0.5695300000  1  1  1
0.2313140000  0.5816500000  0.5738780000  1  1  1
0.2327460000  0.5833120000  0.5868660000  1  1  1
0.1972140000  0.5269710000  0.5921030000  1  1  1
0.1973420000  0.3616200000  0.4080890000  1  1  1
0.1826140000  0.4123120000  0.4188820000  1  1  1
0.6410140000  0.4129440000  0.4188940000  1  1  1
0.1963000000  0.3640690000  0.4306160000  1  1  1
0.1916380000  0.3762630000  0.4455890000  1  1  1
0.6434270000  0.4441540000  0.4519770000  1  1  1
0.6434260000  0.4438960000  0.4676950000  1  1  1
0.1916550000  0.3762140000  0.4743070000  1  1  1
0.1960770000  0.3646040000  0.4890590000  1  1  1
0.1825720000  0.4125840000  0.5000960000  1  1  1
0.6409250000  0.4123750000  0.5001070000  1  1  1
0.1960600000  0.3646450000  0.5111960000  1  1  1
0.1914880000  0.3766970000  0.5259560000  1  1  1
0.6434260000  0.4438190000  0.5324460000  1  1  1
0.6434260000  0.4438920000  0.5481550000  1  1  1
0.1914180000  0.3769000000  0.5546310000  1  1  1
0.1961830000  0.3643490000  0.5697760000  1  1  1
0.1825090000  0.4129880000  0.5814710000  1  1  1
0.6409480000  0.4125200000  0.5813410000  1  1  1
0.1973090000  0.3616970000  0.5924480000  1  1  1
0.2812410000  0.2636850000  0.4069200000  1  1  1
0.2329390000  0.3053550000  0.4133110000  1  1  1
0.2313530000  0.3071930000  0.4264560000  1  1  1
0.2777860000  0.2659540000  0.4332160000  1  1  1
0.2755930000  0.2674400000  0.4466550000  1  1  1
0.2239640000  0.3163390000  0.4530690000  1  1  1
0.2238700000  0.3164630000  0.4669720000  1  1  1
0.2763500000  0.2669230000  0.4734630000  1  1  1
0.2783210000  0.2655960000  0.4869330000  1  1  1
0.2311590000  0.3074210000  0.4935940000  1  1  1
0.2314370000  0.3070950000  0.5065910000  1  1  1
0.2779210000  0.2658630000  0.5133050000  1  1  1
0.2756440000  0.2674050000  0.5266280000  1  1  1
0.2234830000  0.3169710000  0.5332090000  1  1  1
0.2236030000  0.3168130000  0.5470960000  1  1  1
0.2758470000  0.2672670000  0.5534470000  1  1  1
0.2783160000  0.2656000000  0.5669820000  1  1  1
0.2313040000  0.3072510000  0.5739800000  1  1  1
0.2327560000  0.3055650000  0.5872480000  1  1  1
0.2809260000  0.2638880000  0.5934920000  1  1  1
0.4115360000  0.2256520000  0.4067030000  1  1  1
0.3423540000  0.2357040000  0.4131650000  1  1  1
0.3419220000  0.2358320000  0.4268780000  1  1  1
0.4115920000  0.2256520000  0.4334290000  1  1  1
0.4118690000  0.2256520000  0.4466580000  1  1  1
0.3395370000  0.2365580000  0.4533860000  1  1  1
0.3395640000  0.2365500000  0.4666790000  1  1  1
0.4116650000  0.2256520000  0.4733030000  1  1  1
0.4118580000  0.2256520000  0.4866610000  1  1  1
0.3417900000  0.2358720000  0.4932440000  1  1  1
0.3419800000  0.2358150000  0.5069150000  1  1  1
0.4116270000  0.2256520000  0.5135070000  1  1  1
0.4114110000  0.2256520000  0.5267500000  1  1  1
0.3393710000  0.2366090000  0.5334010000  1  1  1
0.3390650000  0.2367050000  0.5466550000  1  1  1
0.4115050000  0.2256520000  0.5533280000  1  1  1
0.4116870000  0.2256520000  0.5665510000  1  1  1
0.3421760000  0.2357560000  0.5731080000  1  1  1
0.3430450000  0.2355000000  0.5869850000  1  1  1
0.4116100000  0.2256520000  0.5933200000  1  1  1
0.5419700000  0.2634800000  0.4067110000  1  1  1
0.4799650000  0.2353480000  0.4131050000  1  1  1
0.4803690000  0.2354660000  0.4268030000  1  1  1
0.5446700000  0.2652400000  0.4330900000  1  1  1
0.5470920000  0.2668640000  0.4464360000  1  1  1
0.4834070000  0.2363770000  0.4532290000  1  1  1
0.4835840000  0.2364320000  0.4666050000  1  1  1
0.5470960000  0.2668670000  0.4733060000  1  1  1
0.5450770000  0.2655090000  0.4867890000  1  1  1
0.4818250000  0.2358970000  0.4932600000  1  1  1
0.4819620000  0.2359390000  0.5069340000  1  1  1
0.5460720000  0.2661740000  0.5132990000  1  1  1
0.5479610000  0.2674570000  0.5267260000  1  1  1
0.4836430000  0.2364500000  0.5334820000  1  1  1
0.4836410000  0.2364490000  0.5466780000  1  1  1
0.5475360000  0.2671660000  0.5535120000  1  1  1
0.5450700000  0.2655050000  0.5669550000  1  1  1
0.4809280000  0.2356300000  0.5731430000  1  1  1
0.4801430000  0.2354000000  0.5868690000  1  1  1
0.5422200000  0.2636410000  0.5932260000  1  1  1
0.6261720000  0.3615870000  0.4078190000  1  1  1
0.5902990000  0.3050210000  0.4131170000  1  1  1
0.5915310000  0.3064400000  0.4263040000  1  1  1
0.6271270000  0.3638260000  0.4306300000  1  1  1
0.6318590000  0.3761680000  0.4455450000  1  1  1
0.5995820000  0.3163610000  0.4529020000  1  1  1
0.5996280000  0.3164210000  0.4667650000  1  1  1
0.6317110000  0.3757440000  0.4741070000  1  1  1
0.6271170000  0.3638010000  0.4889550000  1  1  1
0.5922370000  0.3072650000  0.4934400000  1  1  1
0.5922920000  0.3073290000  0.5067390000  1  1  1
0.6273670000  0.3643990000  0.5111890000  1  1  1
0.6318380000  0.3761090000  0.5259780000  1  1  1