%BLOCK LATTICE_CART
   2.805799707700000   0.000000000000000   0.000000000000000
   1.402899853850000   2.429893824799152   0.000000000000000
   0.000000000000003   0.000000000000002  50.961862716098693
%END BLOCK LATTICE_CART
%BLOCK POSITIONS_FRAC
    Al   0.000000000000000   0.000000000000000   0.000251165208148
    Al   0.333333333300000   0.333333333300000   0.045401113732643
    Al   0.666666666700000   0.666666666700000   0.090519149475232
    Al   0.000000000000000   0.000000000000000   0.135655284996416
    Al   0.333333333300000   0.333333333300000   0.181370161239591
    Al   1.000000000000000   1.000000000000000   0.227569958662793
    Al   0.366666666700000   0.366666666700000   0.273460854289531
    Al   0.700000000000000   0.700000000000000   0.318610393046569
    Al   0.033333333300000   0.033333333300000   0.363724808310519
    Al   0.366666666700000   0.366666666700000   0.408858759239831
    Al   0.700000000000000   0.700000000000000   0.454543564437720
    Al   0.366666666700000   0.366666666700000   0.500228578374347
    Al   0.033333333300000   0.033333333300000   0.545362979643248
    Al   0.700000000000000   0.700000000000000   0.590478178028570
    Al   0.366666666700000   0.366666666700000   0.635628552109463
    Al   0.000000000000000   0.000000000000000   0.681520476991547
    Al   0.333333333300000   0.333333333300000   0.727721319641960
    Al   0.000000000000000   0.000000000000000   0.773437213531648
    Al   0.666666666700000   0.666666666700000   0.818574144363277
    Al   0.333333333300000   0.333333333300000   0.863692891913014
    Al   0.000000000000000   0.000000000000000   0.908843228778099
    Al   0.666666666700000   0.666666666700000   0.954547287934140
%END BLOCK POSITIONS_FRAC
%BLOCK SPECIES_POT
    Al al_HC.lda.recpot                                                                       
%END BLOCK SPECIES_POT
%BLOCK ION_OPTIMIZATION
           0           0           1
           0           0           1
           0           0           1
           0           0           1
           0           0           1
           0           0           1
           0           0           1
           0           0           1
           0           0           1
           0           0           1
           0           0           1
           0           0           1
           0           0           1
           0           0           1
           0           0           1
           0           0           1
           0           0           1
           0           0           1
           0           0           1
           0           0           1
           0           0           1
           0           0           1
%END BLOCK ION_OPTIMIZATION
