INPUT_PARAMETERS
#Parameters (1.General)
suffix		oftest
calculation     scf
esolver_type    ofdft
ntype		1
symmetry	1	
pseudo_dir      /home/dell/2_software/g_pPROFESS/BLPSLibrary-master/GGA/real
pseudo_rcut     16
out_chg         1
#out_force       1
#cal_force       1
#test_force 1
#cal_stress 1
#test_stress 1
#nspin 2
#tot_magnetization 10

#Parameters (2.Iteration)
ecutwfc		16.544
scf_nmax	50
dft_functional  XC_GGA_X_PBE+XC_GGA_C_PBE

#OFDFT
#of_kinetic	tf
#of_kinetic 	vw
of_kinetic	lkt
of_method	tn
#of_method 	cg1
#of_method 	cg2
of_conv 	energy
of_tole 	2e-6
of_tf_weight	1
of_vw_weight	1
#of_wt_rho0	1	
#of_hold_rho0	1
#of_wt_alpha	1.2060113295832984
#of_wt_beta	0.46065533708336837

#Parameters (3.Basis)
basis_type	pw

of_ml_gene_data 1

