%BLOCK LATTICE_CART
   2.805799707700000   0.000000000000000   0.000000000000000
   1.402899853850000   2.429893824799152   0.000000000000000
   0.000000000000003   0.000000000000002  51.056400912694187
%END BLOCK LATTICE_CART
%BLOCK POSITIONS_FRAC
    Al   0.000000000000000   0.000000000000000   0.000141916259983
    Al   0.333333333300000   0.333333333300000   0.045165793729486
    Al   0.666666666700000   0.666666666700000   0.090217335494205
    Al   0.000000000000000   0.000000000000000   0.135285563659364
    Al   0.333333333300000   0.333333333300000   0.180914050512869
    Al   0.000000000000000   0.000000000000000   0.226679644048181
    Al   0.533333333300000   0.533333333300000   0.273462410412050
    Al   0.866666666700000   0.866666666700000   0.318863292534013
    Al   0.200000000000000   0.200000000000000   0.363910085504170
    Al   0.533333333300000   0.533333333300000   0.408961389466692
    Al   0.866666666700000   0.866666666700000   0.454546545391108
    Al   0.533333333300000   0.533333333300000   0.500131621966912
    Al   0.200000000000000   0.200000000000000   0.545182708994489
    Al   0.866666666700000   0.866666666700000   0.590229147874968
    Al   0.533333333300000   0.533333333300000   0.635629527900880
    Al   0.000000000000000   0.000000000000000   0.682411723780019
    Al   0.333333333300000   0.333333333300000   0.728176695342173
    Al   1.000000000000000   1.000000000000000   0.773804563865528
    Al   0.666666666700000   0.666666666700000   0.818872264040738
    Al   0.333333333300000   0.333333333300000   0.863923339078567
    Al   0.000000000000000   0.000000000000000   0.908946910901349
    Al   0.666666666700000   0.666666666700000   0.954544351983710
%END BLOCK POSITIONS_FRAC
%BLOCK SPECIES_POT
    Al al_HC.lda.recpot                                                                       
%END BLOCK SPECIES_POT
%BLOCK ION_OPTIMIZATION
           0           0           1
           0           0           1
           0           0           1
           0           0           1
           0           0           1
           0           0           1
           0           0           1
           0           0           1
           0           0           1
           0           0           1
           0           0           1
           0           0           1
           0           0           1
           0           0           1
           0           0           1
           0           0           1
           0           0           1
           0           0           1
           0           0           1
           0           0           1
           0           0           1
           0           0           1
%END BLOCK ION_OPTIMIZATION
