ATOMIC_SPECIES
Mg 12 mg.gga.psp blps

LATTICE_CONSTANT
8.6662825871966  // add lattice constant

LATTICE_VECTORS
0.000000000000    0.500000000000    0.500000000000    
0.500000000000    0.000000000000    0.500000000000    
0.500000000000    0.500000000000    0.000000000000    

ATOMIC_POSITIONS
Direct

Mg
0.0
1
    0.000000000000    0.000000000000    0.000000000000 1 1 1
