ATOMIC_SPECIES
Al 26.981539 Al_ONCV_PBE-1.2.upf

LATTICE_CONSTANT
7.4984327225523  // add lattice constant

LATTICE_VECTORS
0.707106781187    0.000000000000    0.000000000000    
0.353553390593    0.612372435696    0.000000000000    
0.000000000000    0.000000000000    12.701705922171765    

ATOMIC_POSITIONS
Direct

Al
0.0
22
    -1.6365944595E-30 -1.7032966932E-30  1.8194916500E-04 1 1 1
     3.3333333330E-01  3.3333333330E-01  4.5405960485E-02 1 1 1
     6.6666666670E-01  6.6666666670E-01  9.0914492434E-02 1 1 1
    -1.6232993611E-30 -1.6900015948E-30  1.3607325196E-01 1 1 1
     3.3333333330E-01  3.3333333330E-01  1.8154601911E-01 1 1 1
    -1.6229182963E-30 -1.6896205300E-30  2.2743337738E-01 1 1 1
     3.6666666670E-01  3.6666666670E-01  2.7304269323E-01 1 1 1
     7.0000000000E-01  7.0000000000E-01  3.1820612082E-01 1 1 1
     3.3333333300E-02  3.3333333300E-02  3.6370765288E-01 1 1 1
     3.6666666670E-01  3.6666666670E-01  4.0892484581E-01 1 1 1
     7.0000000000E-01  7.0000000000E-01  4.5454545455E-01 1 1 1
     3.6666666670E-01  3.6666666670E-01  5.0016606329E-01 1 1 1
     3.3333333300E-02  3.3333333300E-02  5.4538325622E-01 1 1 1
     7.0000000000E-01  7.0000000000E-01  5.9088478828E-01 1 1 1
     3.6666666670E-01  3.6666666670E-01  6.3604821587E-01 1 1 1
    -1.6229182963E-30 -1.6896205300E-30  6.8165753172E-01 1 1 1
     3.3333333330E-01  3.3333333330E-01  7.2754488999E-01 1 1 1
    -1.6232993611E-30 -1.6900015948E-30  7.7301765714E-01 1 1 1
     6.6666666670E-01  6.6666666670E-01  8.1817641667E-01 1 1 1
     3.3333333330E-01  3.3333333330E-01  8.6368494861E-01 1 1 1
    -1.6365944595E-30 -1.7032966932E-30  9.0890895994E-01 1 1 1
     6.6666666670E-01  6.6666666670E-01  9.5454545455E-01 1 1 1
