ATOMIC_SPECIES
Al 26.981539 Al_ONCV_PBE-1.2.upf

LATTICE_CONSTANT
7.4984327225523  // add lattice constant

LATTICE_VECTORS
0.707106781187    0.000000000000    0.000000000000    
0.353553390593    0.612372435696    0.000000000000    
0.000000000000    0.000000000000    11.547005383792515 

ATOMIC_POSITIONS
Direct

Al
0.0
20
    2.6525729556E-30  2.6525729556E-30  1.3146529570E-04 1 1 1
    3.3333333330E-01  3.3333333330E-01  4.9801003176E-02 1 1 1
    6.6666666670E-01  6.6666666670E-01  9.9793327195E-02 1 1 1
    2.5882427743E-30  2.5882427743E-30  1.4954658894E-01 1 1 1
    3.3333333330E-01  3.3333333330E-01  1.9946919394E-01 1 1 1
    9.0000000000E-01  9.0000000000E-01  2.5062527057E-01 1 1 1
    2.3333333330E-01  2.3333333330E-01  3.0048290203E-01 1 1 1
    5.6666666670E-01  5.6666666670E-01  3.5027526985E-01 1 1 1
    9.0000000000E-01  9.0000000000E-01  3.9993196402E-01 1 1 1
    2.3333333330E-01  2.3333333330E-01  4.5000000000E-01 1 1 1
    9.0000000000E-01  9.0000000000E-01  5.0006803598E-01 1 1 1
    5.6666666670E-01  5.6666666670E-01  5.4972473015E-01 1 1 1
    2.3333333330E-01  2.3333333330E-01  5.9951709797E-01 1 1 1
    9.0000000000E-01  9.0000000000E-01  6.4937472943E-01 1 1 1
    3.3333333330E-01  3.3333333330E-01  7.0053080606E-01 1 1 1
    2.5882427743E-30  2.5882427743E-30  7.5045341106E-01 1 1 1
    6.6666666670E-01  6.6666666670E-01  8.0020667280E-01 1 1 1
    3.3333333330E-01  3.3333333330E-01  8.5019899682E-01 1 1 1
    2.6525729556E-30  2.6525729556E-30  8.9986853470E-01 1 1 1
    6.6666666670E-01  6.6666666670E-01  9.5000000000E-01 1 1 1
