INPUT_PARAMETERS
#Parameters (1.General)
suffix			oftest
calculation     scf
esolver_type   ofdft
symmetry		1
#symmetry_prec   0.0002
pseudo_dir      /home/dell/2_software/g_pPROFESS/BLPSLibrary-master/GGA/real/
pseudo_rcut     16
nbands          61
out_stru        1
cal_force       1
cal_stress      1
out_chg         1

#Parameters (2.Iteration)
ecutwfc			58.79891903773247
scf_nmax        100

#Parameters (3.Basis)
basis_type		pw

#Parameters (4.Smearing)
smearing_method	gauss
smearing_sigma	0.0074

#Parameters (5.Mixing)
mixing_type		pulay
mixing_beta		0.7

dft_functional  XC_GGA_X_PBE+XC_GGA_C_PBE

#OFDFT
ntype           2
of_kinetic      wt
of_method       tn
of_conv         energy
of_tole         2e-6
