%BLOCK LATTICE_CART
1.573086795504    -2.724666254528    0.000000000000    
1.573086795504    2.724666254528    0.000000000000    
0.000000000000    0.000000000000    10.121600430000    
%END BLOCK LATTICE_CART
%BLOCK POSITIONS_FRAC
Li    0.666666666667    0.333333333333    0.500000000000
Mg    0.666666666667    0.333333333333    0.000000000000
Mg    0.000000000000    0.000000000000    0.742565100000
Mg    0.000000000000    0.000000000000    0.257434900000
%END BLOCK POSITIONS_FRAC
%BLOCK SPECIES_POT
Li li.gga.recpot
Mg mg.gga.recpot
%END BLOCK SPECIES_POT
