INPUT_PARAMETERS
calculation scf
ntype 2
ecutwfc 80.00
#scf_nmax 1
basis_type lcao
dft_functional scan
#kpar 14
#gamma_only 1
mixing_type pulay
mixing_beta 0.400000
smearing_method fixed
smearing_sigma 0.0100000
cal_force 1
cal_stress 1
relax_new 1
symmetry 1
stress_thr 0.01
force_thr 0.01