ATOMIC_SPECIES
Pt  Pt_mass  Pt_pesudopotential
O  O_mass  O_pesudopotential
H  H_mass  H_pesudopotential

NUMERICAL_ORBITAL
Pt_orbital
O_orbital
H_orbital

LATTICE_CONSTANT
5.303303697338

LATTICE_VECTORS
8.000000000000  0.000000000000  0.000000000000
0.000000000000  10.392304846000  0.000000000000
0.000000000000  0.000000000000  9.977244189610

ATOMIC_POSITIONS
Direct

Pt
0
384
0.499975695942  0.499383010226  0.999594688005  1  1  1
0.499913456422  0.999294258116  0.999577438566  1  1  1
0.000076167701  0.499092085697  0.999531158815  1  1  1
0.999874092520  0.999256092346  0.999566323497  1  1  1
0.499969728748  0.165533803504  0.999686509673  1  1  1
0.499846414381  0.665559716033  0.999698291874  1  1  1
0.999861185940  0.165583793269  0.999656525976  1  1  1
0.999825332775  0.665531503573  0.999666777547  1  1  1
0.499891407143  0.332218904832  0.999382595379  1  1  1
0.499765864115  0.832022001181  0.999501685749  1  1  1
0.000034754667  0.332121961649  0.999341749827  1  1  1
0.999734771318  0.832032825347  0.999509066469  1  1  1
0.124703936817  0.499150084484  0.999500681661  1  1  1
0.124708492684  0.999473525344  0.999649190154  1  1  1
0.624825376054  0.499576183779  0.999616171937  1  1  1
0.624797965100  0.999523353621  0.999615448733  1  1  1
0.125089845090  0.165381396750  0.999473282352  1  1  1
0.125009207371  0.665299575918  0.999518669054  1  1  1
0.625123154496  0.165274645830  0.999478860505  1  1  1
0.625041322834  0.665355042528  0.999509894198  1  1  1
0.123966212392  0.332351693747  0.000288847207  1  1  1
0.123075698621  0.831401361238  0.998432448490  1  1  1
0.622946976579  0.331378002155  0.998385150521  1  1  1
0.623100238002  0.831413062395  0.998418959660  1  1  1
0.250018646238  0.499210567088  0.999585787355  1  1  1
0.250317322607  0.999440453311  0.999656637134  1  1  1
0.750267336076  0.499579168867  0.999576224762  1  1  1
0.750297251710  0.999489801548  0.999652553093  1  1  1
0.250297062065  0.165078105727  0.999072250360  1  1  1
0.250396309405  0.665364603432  0.999292663991  1  1  1
0.750378058458  0.165293128649  0.999252471402  1  1  1
0.750392802477  0.665373478407  0.999271117655  1  1  1
0.250054257369  0.332014268501  0.996980561428  1  1  1
0.252020154185  0.831470200693  0.998608819120  1  1  1
0.752034051236  0.331469875720  0.998664976815  1  1  1
0.752020794636  0.831503080224  0.998612532532  1  1  1
0.375301305721  0.499119075778  0.999424971815  1  1  1
0.375271486511  0.999193139553  0.999522780857  1  1  1
0.875267756270  0.499248924720  0.999614180782  1  1  1
0.875258433621  0.999245625126  0.999582614745  1  1  1
0.375101478230  0.165354930875  0.999381491829  1  1  1
0.375177562631  0.665463176215  0.999401967566  1  1  1
0.875110284546  0.165444954758  0.999456748265  1  1  1
0.875172525956  0.665488756283  0.999411497173  1  1  1
0.375975246895  0.332189892147  0.000294440917  1  1  1
0.375371980794  0.832137442702  0.999630657545  1  1  1
0.875594732965  0.332214137530  0.999649161732  1  1  1
0.875345231034  0.832160534373  0.999610207285  1  1  1
0.062455171170  0.082575989418  0.999583941695  1  1  1
0.062587443058  0.582367252161  0.999594993381  1  1  1
0.562540821843  0.082499136828  0.999508362304  1  1  1
0.562570707757  0.582613159681  0.999576010659  1  1  1
0.062319314649  0.248734477290  0.999579474202  1  1  1
0.062353168437  0.748519088458  0.999670385354  1  1  1
0.562475962065  0.248457456943  0.999646874182  1  1  1
0.562393767531  0.748538327160  0.999668934545  1  1  1
0.061900665437  0.415859134582  0.999144047139  1  1  1
0.061329470772  0.916057378254  0.000022197196  1  1  1
0.561503973155  0.416090569019  0.000011531840  1  1  1
0.561384519547  0.916046594517  0.000006497919  1  1  1
0.187471430090  0.082455977251  0.999542939146  1  1  1
0.187609084239  0.582436910263  0.999512414683  1  1  1
0.687598867973  0.082539668709  0.999478917214  1  1  1
0.687619673589  0.582616249225  0.999473287664  1  1  1
0.187050940174  0.248165638429  0.000291799281  1  1  1
0.187538158053  0.748039532766  0.999716071340  1  1  1
0.687561321561  0.248046198891  0.999652778741  1  1  1
0.687543553958  0.748049888187  0.999688357457  1  1  1
0.186951092266  0.416422692739  0.000464271632  1  1  1
0.187538697943  0.917848358367  0.999121682933  1  1  1
0.687558676792  0.417936269700  0.999089543016  1  1  1
0.687550556572  0.917881754043  0.999093199456  1  1  1
0.312722307577  0.082346825373  0.999478208078  1  1  1
0.312565094529  0.582388412434  0.999522913265  1  1  1
0.812633479602  0.082420279709  0.999506616366  1  1  1
0.812601496557  0.582520282005  0.999521654161  1  1  1
0.313091138264  0.248219716973  0.000403699362  1  1  1
0.312640939729  0.748534961112  0.999494635473  1  1  1
0.812601181408  0.248534470908  0.999508908710  1  1  1
0.812618152642  0.748546723955  0.999476029175  1  1  1
0.313050598826  0.416357393966  0.000382923601  1  1  1
0.313728628041  0.916047259087  0.999935247284  1  1  1
0.813728841794  0.416077147348  0.999948915867  1  1  1
0.813745578611  0.916078179590  0.999909698259  1  1  1
0.437603903892  0.082317163235  0.999577075522  1  1  1
0.437502721535  0.582238814482  0.999594326278  1  1  1
0.937542448706  0.082277423225  0.999547106548  1  1  1
0.937502940475  0.582283325889  0.999578220924  1  1  1
0.437734951907  0.248688663209  0.999221371761  1  1  1
0.437477705022  0.748729147295  0.999274560855  1  1  1
0.937523656297  0.248724709187  0.999234029161  1  1  1
0.937455650406  0.748763228408  0.999264933448  1  1  1
0.437681661883  0.415860335123  0.999195286882  1  1  1
0.437544410824  0.915669444361  0.999468213997  1  1  1
0.937858259016  0.415597253217  0.999514942410  1  1  1
0.937474564187  0.915652493322  0.999469391909  1  1  1
0.000000000000  0.055555556000  0.081835882000  0  0  0
0.000000000000  0.555555556000  0.081835882000  0  0  0
0.500000000000  0.055555556000  0.081835882000  0  0  0
0.500000000000  0.555555556000  0.081835882000  0  0  0
0.000000000000  0.222222222001  0.081835882000  0  0  0
0.000000000000  0.722222222001  0.081835882000  0  0  0
0.500000000000  0.222222222001  0.081835882000  0  0  0
0.500000000000  0.722222222001  0.081835882000  0  0  0
0.000000000000  0.388888889000  0.081835882000  0  0  0
0.000000000000  0.888888889000  0.081835882000  0  0  0
0.500000000000  0.388888889000  0.081835882000  0  0  0
0.500000000000  0.888888889000  0.081835882000  0  0  0
0.125000000000  0.055555556000  0.081835882000  0  0  0
0.125000000000  0.555555556000  0.081835882000  0  0  0
0.625000000000  0.055555556000  0.081835882000  0  0  0
0.625000000000  0.555555556000  0.081835882000  0  0  0
0.125000000000  0.222222222001  0.081835882000  0  0  0
0.125000000000  0.722222222001  0.081835882000  0  0  0
0.625000000000  0.222222222001  0.081835882000  0  0  0
0.625000000000  0.722222222001  0.081835882000  0  0  0
0.125000000000  0.388888889000  0.081835882000  0  0  0
0.125000000000  0.888888889000  0.081835882000  0  0  0
0.625000000000  0.388888889000  0.081835882000  0  0  0
0.625000000000  0.888888889000  0.081835882000  0  0  0
0.250000000000  0.055555556000  0.081835882000  0  0  0
0.250000000000  0.555555556000  0.081835882000  0  0  0
0.750000000000  0.055555556000  0.081835882000  0  0  0
0.750000000000  0.555555556000  0.081835882000  0  0  0
0.250000000000  0.222222222001  0.081835882000  0  0  0
0.250000000000  0.722222222001  0.081835882000  0  0  0
0.750000000000  0.222222222001  0.081835882000  0  0  0
0.750000000000  0.722222222001  0.081835882000  0  0  0
0.250000000000  0.388888889000  0.081835882000  0  0  0
0.250000000000  0.888888889000  0.081835882000  0  0  0
0.750000000000  0.388888889000  0.081835882000  0  0  0
0.750000000000  0.888888889000  0.081835882000  0  0  0
0.375000000000  0.055555556000  0.081835882000  0  0  0
0.375000000000  0.555555556000  0.081835882000  0  0  0
0.875000000000  0.055555556000  0.081835882000  0  0  0
0.875000000000  0.555555556000  0.081835882000  0  0  0
0.375000000000  0.222222222001  0.081835882000  0  0  0
0.375000000000  0.722222222001  0.081835882000  0  0  0
0.875000000000  0.222222222001  0.081835882000  0  0  0
0.875000000000  0.722222222001  0.081835882000  0  0  0
0.375000000000  0.388888889000  0.081835882000  0  0  0
0.375000000000  0.888888889000  0.081835882000  0  0  0
0.875000000000  0.388888889000  0.081835882000  0  0  0
0.875000000000  0.888888889000  0.081835882000  0  0  0
0.062500000000  0.138888889000  0.081835882000  0  0  0
0.062500000000  0.638888889000  0.081835882000  0  0  0
0.562500000000  0.138888889000  0.081835882000  0  0  0
0.562500000000  0.638888889000  0.081835882000  0  0  0
0.062500000000  0.305555556000  0.081835882000  0  0  0
0.062500000000  0.805555556000  0.081835882000  0  0  0
0.562500000000  0.305555556000  0.081835882000  0  0  0
0.562500000000  0.805555556000  0.081835882000  0  0  0
0.062500000000  0.472222222001  0.081835882000  0  0  0
0.062500000000  0.972222222001  0.081835882000  0  0  0
0.562500000000  0.472222222001  0.081835882000  0  0  0
0.562500000000  0.972222222001  0.081835882000  0  0  0
0.187500000000  0.138888889000  0.081835882000  0  0  0
0.187500000000  0.638888889000  0.081835882000  0  0  0
0.687500000000  0.138888889000  0.081835882000  0  0  0
0.687500000000  0.638888889000  0.081835882000  0  0  0
0.187500000000  0.305555556000  0.081835882000  0  0  0
0.187500000000  0.805555556000  0.081835882000  0  0  0
0.687500000000  0.305555556000  0.081835882000  0  0  0
0.687500000000  0.805555556000  0.081835882000  0  0  0
0.187500000000  0.472222222001  0.081835882000  0  0  0
0.187500000000  0.972222222001  0.081835882000  0  0  0
0.687500000000  0.472222222001  0.081835882000  0  0  0
0.687500000000  0.972222222001  0.081835882000  0  0  0
0.312500000000  0.138888889000  0.081835882000  0  0  0
0.312500000000  0.638888889000  0.081835882000  0  0  0
0.812500000000  0.138888889000  0.081835882000  0  0  0
0.812500000000  0.638888889000  0.081835882000  0  0  0
0.312500000000  0.305555556000  0.081835882000  0  0  0
0.312500000000  0.805555556000  0.081835882000  0  0  0
0.812500000000  0.305555556000  0.081835882000  0  0  0
0.812500000000  0.805555556000  0.081835882000  0  0  0
0.312500000000  0.472222222001  0.081835882000  0  0  0
0.312500000000  0.972222222001  0.081835882000  0  0  0
0.812500000000  0.472222222001  0.081835882000  0  0  0
0.812500000000  0.972222222001  0.081835882000  0  0  0
0.437500000000  0.138888889000  0.081835882000  0  0  0
0.437500000000  0.638888889000  0.081835882000  0  0  0
0.937500000000  0.138888889000  0.081835882000  0  0  0
0.937500000000  0.638888889000  0.081835882000  0  0  0
0.437500000000  0.305555556000  0.081835882000  0  0  0
0.437500000000  0.805555556000  0.081835882000  0  0  0
0.937500000000  0.305555556000  0.081835882000  0  0  0
0.937500000000  0.805555556000  0.081835882000  0  0  0
0.437500000000  0.472222222001  0.081835882000  0  0  0
0.437500000000  0.972222222001  0.081835882000  0  0  0
0.937500000000  0.472222222001  0.081835882000  0  0  0
0.937500000000  0.972222222001  0.081835882000  0  0  0
0.062500000000  0.027777777999  0.163671765000  0  0  0
0.062500000000  0.527777777999  0.163671765000  0  0  0
0.562500000000  0.027777777999  0.163671765000  0  0  0
0.562500000000  0.527777777999  0.163671765000  0  0  0
0.062500000000  0.194444445000  0.163671765000  0  0  0
0.062500000000  0.694444445000  0.163671765000  0  0  0
0.562500000000  0.194444445000  0.163671765000  0  0  0
0.562500000000  0.694444445000  0.163671765000  0  0  0
0.062500000000  0.361111111000  0.163671765000  0  0  0
0.062500000000  0.861111111000  0.163671765000  0  0  0
0.562500000000  0.361111111000  0.163671765000  0  0  0
0.562500000000  0.861111111000  0.163671765000  0  0  0
0.187500000000  0.027777777999  0.163671765000  0  0  0
0.187500000000  0.527777777999  0.163671765000  0  0  0
0.687500000000  0.027777777999  0.163671765000  0  0  0
0.687500000000  0.527777777999  0.163671765000  0  0  0
0.187500000000  0.194444445000  0.163671765000  0  0  0
0.187500000000  0.694444445000  0.163671765000  0  0  0
0.687500000000  0.194444445000  0.163671765000  0  0  0
0.687500000000  0.694444445000  0.163671765000  0  0  0
0.187500000000  0.361111111000  0.163671765000  0  0  0
0.187500000000  0.861111111000  0.163671765000  0  0  0
0.687500000000  0.361111111000  0.163671765000  0  0  0
0.687500000000  0.861111111000  0.163671765000  0  0  0
0.312500000000  0.027777777999  0.163671765000  0  0  0
0.312500000000  0.527777777999  0.163671765000  0  0  0
0.812500000000  0.027777777999  0.163671765000  0  0  0
0.812500000000  0.527777777999  0.163671765000  0  0  0
0.312500000000  0.194444445000  0.163671765000  0  0  0
0.312500000000  0.694444445000  0.163671765000  0  0  0
0.812500000000  0.194444445000  0.163671765000  0  0  0
0.812500000000  0.694444445000  0.163671765000  0  0  0
0.312500000000  0.361111111000  0.163671765000  0  0  0
0.312500000000  0.861111111000  0.163671765000  0  0  0
0.812500000000  0.361111111000  0.163671765000  0  0  0
0.812500000000  0.861111111000  0.163671765000  0  0  0
0.437500000000  0.027777777999  0.163671765000  0  0  0
0.437500000000  0.527777777999  0.163671765000  0  0  0
0.937500000000  0.027777777999  0.163671765000  0  0  0
0.937500000000  0.527777777999  0.163671765000  0  0  0
0.437500000000  0.194444445000  0.163671765000  0  0  0
0.437500000000  0.694444445000  0.163671765000  0  0  0
0.937500000000  0.194444445000  0.163671765000  0  0  0
0.937500000000  0.694444445000  0.163671765000  0  0  0
0.437500000000  0.361111111000  0.163671765000  0  0  0
0.437500000000  0.861111111000  0.163671765000  0  0  0
0.937500000000  0.361111111000  0.163671765000  0  0  0
0.937500000000  0.861111111000  0.163671765000  0  0  0
0.000000000000  0.111111111000  0.163671765000  0  0  0
0.000000000000  0.611111111000  0.163671765000  0  0  0
0.500000000000  0.111111111000  0.163671765000  0  0  0
0.500000000000  0.611111111000  0.163671765000  0  0  0
0.000000000000  0.277777777999  0.163671765000  0  0  0
0.000000000000  0.777777777999  0.163671765000  0  0  0
0.500000000000  0.277777777999  0.163671765000  0  0  0
0.500000000000  0.777777777999  0.163671765000  0  0  0
0.000000000000  0.444444445000  0.163671765000  0  0  0
0.000000000000  0.944444445000  0.163671765000  0  0  0
0.500000000000  0.444444445000  0.163671765000  0  0  0
0.500000000000  0.944444445000  0.163671765000  0  0  0
0.125000000000  0.111111111000  0.163671765000  0  0  0
0.125000000000  0.611111111000  0.163671765000  0  0  0
0.625000000000  0.111111111000  0.163671765000  0  0  0
0.625000000000  0.611111111000  0.163671765000  0  0  0
0.125000000000  0.277777777999  0.163671765000  0  0  0
0.125000000000  0.777777777999  0.163671765000  0  0  0
0.625000000000  0.277777777999  0.163671765000  0  0  0
0.625000000000  0.777777777999  0.163671765000  0  0  0
0.125000000000  0.444444445000  0.163671765000  0  0  0
0.125000000000  0.944444445000  0.163671765000  0  0  0
0.625000000000  0.444444445000  0.163671765000  0  0  0
0.625000000000  0.944444445000  0.163671765000  0  0  0
0.250000000000  0.111111111000  0.163671765000  0  0  0
0.250000000000  0.611111111000  0.163671765000  0  0  0
0.750000000000  0.111111111000  0.163671765000  0  0  0
0.750000000000  0.611111111000  0.163671765000  0  0  0
0.250000000000  0.277777777999  0.163671765000  0  0  0
0.250000000000  0.777777777999  0.163671765000  0  0  0
0.750000000000  0.277777777999  0.163671765000  0  0  0
0.750000000000  0.777777777999  0.163671765000  0  0  0
0.250000000000  0.444444445000  0.163671765000  0  0  0
0.250000000000  0.944444445000  0.163671765000  0  0  0
0.750000000000  0.444444445000  0.163671765000  0  0  0
0.750000000000  0.944444445000  0.163671765000  0  0  0
0.375000000000  0.111111111000  0.163671765000  0  0  0
0.375000000000  0.611111111000  0.163671765000  0  0  0
0.875000000000  0.111111111000  0.163671765000  0  0  0
0.875000000000  0.611111111000  0.163671765000  0  0  0
0.375000000000  0.277777777999  0.163671765000  0  0  0
0.375000000000  0.777777777999  0.163671765000  0  0  0
0.875000000000  0.277777777999  0.163671765000  0  0  0
0.875000000000  0.777777777999  0.163671765000  0  0  0
0.375000000000  0.444444445000  0.163671765000  0  0  0
0.375000000000  0.944444445000  0.163671765000  0  0  0
0.875000000000  0.444444445000  0.163671765000  0  0  0
0.875000000000  0.944444445000  0.163671765000  0  0  0
0.499970030117  0.001635557057  0.245975295885  1  1  1
0.499990586176  0.501630118527  0.245957025211  1  1  1
0.999905675715  0.001612924929  0.245965916399  1  1  1
0.000090293049  0.501448908085  0.245945537035  1  1  1
0.499964909121  0.167854122565  0.245848234294  1  1  1
0.499850118584  0.667966316686  0.245867710121  1  1  1
0.999785634333  0.167922617717  0.245923051015  1  1  1
0.999868465762  0.667962601228  0.245895506442  1  1  1
0.500033577667  0.334600200850  0.246010927234  1  1  1
0.499840306418  0.834618842892  0.245890644093  1  1  1
0.999915730831  0.334568109011  0.246138332979  1  1  1
0.999778212562  0.834631851622  0.245878922425  1  1  1
0.124736119044  0.001692803682  0.245839852508  1  1  1
0.125048053595  0.501559696458  0.245971979236  1  1  1
0.624832824550  0.001706645575  0.245842157989  1  1  1
0.624826294922  0.501734771455  0.245873043553  1  1  1
0.124748637531  0.167849977397  0.246136361225  1  1  1
0.124993009350  0.667794390745  0.245995870881  1  1  1
0.625055185189  0.167761549743  0.246019098717  1  1  1
0.625013120483  0.667829942283  0.246051386290  1  1  1
0.123939215724  0.334537759183  0.245171119957  1  1  1
0.123621218887  0.833901137722  0.247511649026  1  1  1
0.623473083064  0.333866060258  0.247554583934  1  1  1
0.623659024511  0.833891614309  0.247538454933  1  1  1
0.250260118295  0.001653133601  0.245821558893  1  1  1
0.249994403101  0.501821364963  0.246088244981  1  1  1
0.750246443210  0.001696693016  0.245795909399  1  1  1
0.750215109769  0.501727957561  0.245850364464  1  1  1
0.250191243024  0.167570327445  0.246240284162  1  1  1
0.250333443204  0.667775481243  0.246366509642  1  1  1
0.750327875484  0.167702805424  0.246451067645  1  1  1
0.750330403531  0.667792457265  0.246428590137  1  1  1
0.250124912981  0.334387581879  0.248635722068  1  1  1
0.251567005703  0.834008472748  0.247258442877  1  1  1
0.751584827431  0.333957458594  0.247185895823  1  1  1
0.751601149542  0.834007219055  0.247279142350  1  1  1
0.375145768523  0.001633278706  0.246010176537  1  1  1
0.374981496250  0.501604475888  0.246050583070  1  1  1
0.875130319156  0.001618357421  0.245969978137  1  1  1
0.875156116710  0.501646372620  0.245950905751  1  1  1
0.375465225384  0.167901121398  0.246189456645  1  1  1
0.375188452979  0.667997728829  0.246110815953  1  1  1
0.875123869979  0.167934580596  0.246027417580  1  1  1
0.875194596153  0.667997583344  0.246100848296  1  1  1
0.376031907113  0.334593174526  0.245147564502  1  1  1
0.375220744015  0.834817815662  0.245723178900  1  1  1
0.875418269750  0.334884043259  0.245692780428  1  1  1
0.875183655612  0.834836526762  0.245749122115  1  1  1
0.062516874334  0.084781804749  0.245920709823  1  1  1
0.062541398757  0.584673209427  0.245906996135  1  1  1
0.562595953388  0.084743613250  0.245922752529  1  1  1
0.562508845506  0.584821641863  0.245950405781  1  1  1
0.061844334320  0.251076303400  0.246236362898  1  1  1
0.062291212843  0.751098215254  0.245796346743  1  1  1
0.562500626447  0.251014165837  0.245827252259  1  1  1
0.562336146377  0.751081219549  0.245781070332  1  1  1
0.062298770561  0.418175907058  0.246143376695  1  1  1
0.061573081932  0.918372571621  0.245505613790  1  1  1
0.561659762819  0.418414889047  0.245518098017  1  1  1
0.561633097544  0.918354730775  0.245519161121  1  1  1
0.187571318940  0.084858699862  0.246056541124  1  1  1
0.187525235115  0.584853064804  0.246023964178  1  1  1
0.687642210862  0.084909014109  0.246063416405  1  1  1
0.687584964491  0.584982091679  0.246028868964  1  1  1
0.187035199236  0.250376699243  0.245172666237  1  1  1
0.187505480579  0.750410447038  0.245660269461  1  1  1
0.687509106590  0.250373520268  0.245698349947  1  1  1
0.687506712683  0.750402485964  0.245716227470  1  1  1
0.187017121720  0.418602088690  0.245046938689  1  1  1
0.187492485246  0.919834180910  0.247038199584  1  1  1
0.687531827336  0.419857987938  0.247138628061  1  1  1
0.687545457046  0.919821749310  0.247023237809  1  1  1
0.312526452131  0.084723403484  0.246027753435  1  1  1
0.312563822475  0.584821465033  0.245980393858  1  1  1
0.812469445347  0.084756406127  0.245962224498  1  1  1
0.812524927842  0.584847309278  0.245973986939  1  1  1
0.313166219189  0.250507124845  0.245067072634  1  1  1
0.312724528990  0.751088594664  0.245844585030  1  1  1
0.812664672229  0.251058919899  0.245819840278  1  1  1
0.812724189303  0.751075951717  0.245855113331  1  1  1
0.313094465863  0.418653380788  0.245185528737  1  1  1
0.313454661459  0.918439371869  0.245600763587  1  1  1
0.813424872647  0.418438913423  0.245610261767  1  1  1
0.813474325814  0.918434156154  0.245610750999  1  1  1
0.437507439526  0.084690449015  0.245893357029  1  1  1
0.437530435258  0.584640046681  0.245866435741  1  1  1
0.937431354412  0.084637681918  0.245878599938  1  1  1
0.937556030464  0.584687736413  0.245913673924  1  1  1
0.438027458900  0.251042798360  0.246683887131  1  1  1
0.437473302575  0.751213539692  0.246428723031  1  1  1
0.937489136980  0.251261899337  0.246429508628  1  1  1
0.937457327854  0.751257629964  0.246440534550  1  1  1
0.437451886144  0.418119033484  0.246111823885  1  1  1
0.437584320761  0.918085407031  0.246085200321  1  1  1
0.937840992398  0.418121521617  0.246052141211  1  1  1
0.937533990441  0.918072495437  0.246068698616  1  1  1

O
0
32
0.410285125036  0.294406814821  0.882109822992  1  1  1
0.391014418340  0.799407811316  0.884579513078  1  1  1
0.890977513742  0.299403099668  0.884581305907  1  1  1
0.891010570216  0.799409439276  0.884581817414  1  1  1
0.294865302263  0.278396862160  0.871843338965  1  1  1
0.290414987449  0.771952837190  0.853532967453  1  1  1
0.790401307641  0.271952555417  0.853528732039  1  1  1
0.790410047784  0.771953105211  0.853541947486  1  1  1
0.248076517960  0.335460751862  0.922069160550  1  1  1
0.195996344904  0.813575943306  0.879872014332  1  1  1
0.696012944885  0.313571253781  0.879882215850  1  1  1
0.696004856493  0.813580265794  0.879876370889  1  1  1
0.271041162379  0.189870192948  0.882055669056  1  1  1
0.264993356974  0.692074950061  0.882949535386  1  1  1
0.764977412260  0.192029566187  0.882948570738  1  1  1
0.764986509452  0.692058557036  0.882949392437  1  1  1
0.410278068948  0.292379634086  0.363431678326  1  1  1
0.390250544307  0.799408846338  0.359385907897  1  1  1
0.890183561580  0.299397168636  0.359385378856  1  1  1
0.890239073577  0.799414551882  0.359384815234  1  1  1
0.294327453440  0.280065807182  0.373001196657  1  1  1
0.290678375058  0.768990157921  0.390744828127  1  1  1
0.790657168808  0.268976181998  0.390750146907  1  1  1
0.790670234855  0.768990230121  0.390732594701  1  1  1
0.248140668181  0.337938410316  0.323477030820  1  1  1
0.192289728462  0.806290390702  0.365781463221  1  1  1
0.692271458868  0.306283661034  0.365782462772  1  1  1
0.692291239610  0.806292041479  0.365776739040  1  1  1
0.270301144993  0.192174248631  0.362963062200  1  1  1
0.268600713614  0.688383261766  0.362638246451  1  1  1
0.768593578269  0.188361970982  0.362654156330  1  1  1
0.768592461637  0.688370164616  0.362633404269  1  1  1

H
0
80
0.098905484895  0.402227490278  0.383881334662  1  1  1
0.187234212201  0.863463570359  0.276815894391  1  1  1
0.687320482857  0.363382683747  0.276734084116  1  1  1
0.687233918498  0.863445750485  0.276836846121  1  1  1
0.339083413933  0.283907000703  0.370405054960  1  1  1
0.330453827950  0.781942561362  0.376498109491  1  1  1
0.830449014558  0.281942224354  0.376497600552  1  1  1
0.830459489163  0.781948269925  0.376486782390  1  1  1
0.422588970771  0.280056613973  0.331940926184  1  1  1
0.405418983367  0.780560751819  0.332559924259  1  1  1
0.905462354475  0.280575511393  0.332571151286  1  1  1
0.905413018384  0.780564782941  0.332562364330  1  1  1
0.269566338230  0.307476560134  0.345828873576  1  1  1
0.253834168649  0.787793570341  0.380037739560  1  1  1
0.753830105117  0.287774932749  0.380055519478  1  1  1
0.753833341978  0.787794395220  0.380026283782  1  1  1
0.284052959871  0.246576480208  0.368111570329  1  1  1
0.282931960966  0.735169107216  0.378854102204  1  1  1
0.782929357232  0.235154033385  0.378861828959  1  1  1
0.782935407742  0.735174809095  0.378846806193  1  1  1
0.206154572255  0.341152044135  0.332280074901  1  1  1
0.180856018576  0.837648742600  0.374111968746  1  1  1
0.680904503886  0.337660206834  0.374110449751  1  1  1
0.680851498831  0.837643978967  0.374103726989  1  1  1
0.098414756604  0.407200349030  0.357377391838  1  1  1
0.184171718307  0.803414424705  0.331186876735  1  1  1
0.684194218342  0.303429594490  0.331177751122  1  1  1
0.684170656283  0.803420679648  0.331174121908  1  1  1
0.420962447483  0.324885305420  0.361513151360  1  1  1
0.387490196034  0.829977029693  0.344598849182  1  1  1
0.887572728642  0.330011660073  0.344675497972  1  1  1
0.887469939100  0.829976671394  0.344582137254  1  1  1
0.276038598948  0.182127834459  0.329385285484  1  1  1
0.274375424496  0.683868116480  0.327547784540  1  1  1
0.774337967710  0.183839776770  0.327540184248  1  1  1
0.774359357832  0.683868505136  0.327530093180  1  1  1
0.229641186979  0.182563192878  0.370600968995  1  1  1
0.227353501290  0.678966725377  0.368347976399  1  1  1
0.727310477821  0.178992787861  0.368342601368  1  1  1
0.727324288250  0.678996625605  0.368312399459  1  1  1
0.096784502643  0.404816778037  0.859458739127  1  1  1
0.187090711232  0.861475254809  0.970167113168  1  1  1
0.687205856906  0.361416232668  0.970251653543  1  1  1
0.687094509751  0.861460936396  0.970150479612  1  1  1
0.339340510883  0.283231409896  0.874526887483  1  1  1
0.330857669018  0.784022320918  0.867369223258  1  1  1
0.830858355586  0.284037538079  0.867369405187  1  1  1
0.830861335017  0.784025359562  0.867378698912  1  1  1
0.422912558938  0.283686704393  0.914065544374  1  1  1
0.398294135081  0.789633929546  0.918119472393  1  1  1
0.898306222159  0.289644664962  0.918116916723  1  1  1
0.898281601690  0.789630504630  0.918120027135  1  1  1
0.269367245727  0.305560847860  0.899574360810  1  1  1
0.254859070119  0.791999562450  0.864631702668  1  1  1
0.754841473061  0.292001064377  0.864621675239  1  1  1
0.754857107451  0.792000342133  0.864642346193  1  1  1
0.285516678770  0.244819849928  0.876646612635  1  1  1
0.281491824844  0.738476657205  0.865840429763  1  1  1
0.781505224367  0.238493351575  0.865824619584  1  1  1
0.781493897657  0.738479666316  0.865849940771  1  1  1
0.206204028829  0.339105485513  0.913145866826  1  1  1
0.189156578593  0.846315645131  0.874521287749  1  1  1
0.689140481948  0.346305561807  0.874490039414  1  1  1
0.689150892517  0.846310824508  0.874529035910  1  1  1
0.095584016091  0.409771350762  0.885940363881  1  1  1
0.187872763775  0.808792989006  0.914285984628  1  1  1
0.687900335869  0.308806829363  0.914289806387  1  1  1
0.687865062455  0.808790198329  0.914294328418  1  1  1
0.419584402752  0.327195825619  0.882506609717  1  1  1
0.397423260847  0.832622937947  0.885556043227  1  1  1
0.897520049678  0.332607832585  0.885483658099  1  1  1
0.897414086047  0.832617669222  0.885565678986  1  1  1
0.277834418123  0.179972767273  0.915507581412  1  1  1
0.276470521256  0.686655716994  0.916889533625  1  1  1
0.776443638456  0.186642227925  0.916889532441  1  1  1
0.776468531194  0.686646368579  0.916895664125  1  1  1
0.229658661284  0.181286995565  0.875751250343  1  1  1
0.222011554014  0.686179685591  0.882680275239  1  1  1
0.721979934905  0.186211990202  0.882706429570  1  1  1
0.721991901481  0.686209588450  0.882720318261  1  1  1
