INPUT_PARAMETERS
#Parameters (1.General)
suffix			  Pt_2*2-scf
calculation               scf
ntype			  3
nbands			  3800
symmetry		  0
nstep                     1000
force_thr_ev              0.03
move_method               cg
out_stru                  1
trust_radius_ini          0.5
out_potential             2
#check with Liu
gamma_only        0

#Parameters (2.Iteration)
#check with Liu
ecutwfc			  60
dr2	         	  1e-6
niter			  200

#Parameters (3.Basis)
basis_type		  lcao
ks_solver		  genelpa

#Parameters (4.Smearing)
smearing		  gaussian
sigma			  0.01

#Parameters (5.Mixing)
mixing_type		  pulay
mixing_beta		  0.1
mixing_ndim       20

out_charge        1 
