ATOMIC_SPECIES
Pt  Pt_mass  Pt_pesudopotential
O  O_mass  O_pesudopotential
H  H_mass  H_pesudopotential

NUMERICAL_ORBITAL
Pt_orbital
O_orbital
H_orbital

LATTICE_CONSTANT
5.303303697337

LATTICE_VECTORS
8.000000000000  0.000000000000  0.000000000000
0.000000000000  10.392304846000  0.000000000000
0.000000000000  0.000000000000  9.977244189610

ATOMIC_POSITIONS
Direct

Pt
0
384
0.499893070000  0.499260530000  0.999590331000  1  1  1
0.499893070000  0.999260530000  0.999590331000  1  1  1
0.999893070000  0.499260530000  0.999590331000  1  1  1
0.999893070000  0.999260530000  0.999590331000  1  1  1
0.499861347000  0.165550476000  0.999670347000  1  1  1
0.499861347000  0.665550476000  0.999670347000  1  1  1
0.999861347000  0.165550476000  0.999670347000  1  1  1
0.999861347000  0.665550476000  0.999670347000  1  1  1
0.499763647000  0.332087968000  0.999503813000  1  1  1
0.499763647000  0.832087968000  0.999503813000  1  1  1
0.999763647000  0.332087968000  0.999503813000  1  1  1
0.999763647000  0.832087968000  0.999503813000  1  1  1
0.124753069000  0.499520742000  0.999622072000  1  1  1
0.124753069000  0.999520742000  0.999622072000  1  1  1
0.624753069000  0.499520742000  0.999622072000  1  1  1
0.624753069000  0.999520742000  0.999622072000  1  1  1
0.125056014000  0.165281766000  0.999514370000  1  1  1
0.125056014000  0.665281766000  0.999514370000  1  1  1
0.625056014000  0.165281766000  0.999514370000  1  1  1
0.625056014000  0.665281766000  0.999514370000  1  1  1
0.123095579000  0.331438480000  0.998407666000  1  1  1
0.123095579000  0.831438480000  0.998407666000  1  1  1
0.623095579000  0.331438480000  0.998407666000  1  1  1
0.623095579000  0.831438480000  0.998407666000  1  1  1
0.250353764000  0.499491980000  0.999633540000  1  1  1
0.250353764000  0.999491980000  0.999633540000  1  1  1
0.750353764000  0.499491980000  0.999633540000  1  1  1
0.750353764000  0.999491980000  0.999633540000  1  1  1
0.250433014000  0.165330144000  0.999234347000  1  1  1
0.250433014000  0.665330144000  0.999234347000  1  1  1
0.750433014000  0.165330144000  0.999234347000  1  1  1
0.750433014000  0.665330144000  0.999234347000  1  1  1
0.252040109000  0.331531625000  0.998655254000  1  1  1
0.252040109000  0.831531625000  0.998655254000  1  1  1
0.752040109000  0.331531625000  0.998655254000  1  1  1
0.752040109000  0.831531625000  0.998655254000  1  1  1
0.375322066000  0.499209464000  0.999563272000  1  1  1
0.375322066000  0.999209464000  0.999563272000  1  1  1
0.875322066000  0.499209464000  0.999563272000  1  1  1
0.875322066000  0.999209464000  0.999563272000  1  1  1
0.375205068000  0.165477702000  0.999426309000  1  1  1
0.375205068000  0.665477702000  0.999426309000  1  1  1
0.875205068000  0.165477702000  0.999426309000  1  1  1
0.875205068000  0.665477702000  0.999426309000  1  1  1
0.375373274000  0.332193085000  0.999586260000  1  1  1
0.375373274000  0.832193085000  0.999586260000  1  1  1
0.875373274000  0.332193085000  0.999586260000  1  1  1
0.875373274000  0.832193085000  0.999586260000  1  1  1
0.062532979000  0.082517520000  0.999528197000  1  1  1
0.062532979000  0.582517520000  0.999528197000  1  1  1
0.562532979000  0.082517520000  0.999528197000  1  1  1
0.562532979000  0.582517520000  0.999528197000  1  1  1
0.062429227000  0.248530287000  0.999685400000  1  1  1
0.062429227000  0.748530287000  0.999685400000  1  1  1
0.562429227000  0.248530287000  0.999685400000  1  1  1
0.562429227000  0.748530287000  0.999685400000  1  1  1
0.061373669000  0.416101662000  0.000024813100  1  1  1
0.061373669000  0.916101662000  0.000024813100  1  1  1
0.561373669000  0.416101662000  0.000024813100  1  1  1
0.561373669000  0.916101662000  0.000024813100  1  1  1
0.187622231000  0.082593681000  0.999486125000  1  1  1
0.187622231000  0.582593681000  0.999486125000  1  1  1
0.687622231000  0.082593681000  0.999486125000  1  1  1
0.687622231000  0.582593681000  0.999486125000  1  1  1
0.187601157000  0.248045374000  0.999725144000  1  1  1
0.187601157000  0.748045374000  0.999725144000  1  1  1
0.687601157000  0.248045374000  0.999725144000  1  1  1
0.687601157000  0.748045374000  0.999725144000  1  1  1
0.187547356000  0.417921064000  0.999148352000  1  1  1
0.187547356000  0.917921064000  0.999148352000  1  1  1
0.687547356000  0.417921064000  0.999148352000  1  1  1
0.687547356000  0.917921064000  0.999148352000  1  1  1
0.312672264000  0.082472270000  0.999495794000  1  1  1
0.312672264000  0.582472270000  0.999495794000  1  1  1
0.812672264000  0.082472270000  0.999495794000  1  1  1
0.812672264000  0.582472270000  0.999495794000  1  1  1
0.312587442000  0.248558656000  0.999503303000  1  1  1
0.312587442000  0.748558656000  0.999503303000  1  1  1
0.812587442000  0.248558656000  0.999503303000  1  1  1
0.812587442000  0.748558656000  0.999503303000  1  1  1
0.313787872000  0.416097904000  0.999949681000  1  1  1
0.313787872000  0.916097904000  0.999949681000  1  1  1
0.813787872000  0.416097904000  0.999949681000  1  1  1
0.813787872000  0.916097904000  0.999949681000  1  1  1
0.437593914000  0.082218821000  0.999552503000  1  1  1
0.437593914000  0.582218821000  0.999552503000  1  1  1
0.937593914000  0.082218821000  0.999552503000  1  1  1
0.937593914000  0.582218821000  0.999552503000  1  1  1
0.437472860000  0.248757966000  0.999266338000  1  1  1
0.437472860000  0.748757966000  0.999266338000  1  1  1
0.937472860000  0.248757966000  0.999266338000  1  1  1
0.937472860000  0.748757966000  0.999266338000  1  1  1
0.437534359000  0.415654189000  0.999520653000  1  1  1
0.437534359000  0.915654189000  0.999520653000  1  1  1
0.937534359000  0.415654189000  0.999520653000  1  1  1
0.937534359000  0.915654189000  0.999520653000  1  1  1
0.000000000000  0.055555556000  0.081835882000  0  0  0
0.000000000000  0.555555556000  0.081835882000  0  0  0
0.500000000000  0.055555556000  0.081835882000  0  0  0
0.500000000000  0.555555556000  0.081835882000  0  0  0
0.000000000000  0.222222222000  0.081835882000  0  0  0
0.000000000000  0.722222222000  0.081835882000  0  0  0
0.500000000000  0.222222222000  0.081835882000  0  0  0
0.500000000000  0.722222222000  0.081835882000  0  0  0
0.000000000000  0.388888889000  0.081835882000  0  0  0
0.000000000000  0.888888889000  0.081835882000  0  0  0
0.500000000000  0.388888889000  0.081835882000  0  0  0
0.500000000000  0.888888889000  0.081835882000  0  0  0
0.125000000000  0.055555556000  0.081835882000  0  0  0
0.125000000000  0.555555556000  0.081835882000  0  0  0
0.625000000000  0.055555556000  0.081835882000  0  0  0
0.625000000000  0.555555556000  0.081835882000  0  0  0
0.125000000000  0.222222222000  0.081835882000  0  0  0
0.125000000000  0.722222222000  0.081835882000  0  0  0
0.625000000000  0.222222222000  0.081835882000  0  0  0
0.625000000000  0.722222222000  0.081835882000  0  0  0
0.125000000000  0.388888889000  0.081835882000  0  0  0
0.125000000000  0.888888889000  0.081835882000  0  0  0
0.625000000000  0.388888889000  0.081835882000  0  0  0
0.625000000000  0.888888889000  0.081835882000  0  0  0
0.250000000000  0.055555556000  0.081835882000  0  0  0
0.250000000000  0.555555556000  0.081835882000  0  0  0
0.750000000000  0.055555556000  0.081835882000  0  0  0
0.750000000000  0.555555556000  0.081835882000  0  0  0
0.250000000000  0.222222222000  0.081835882000  0  0  0
0.250000000000  0.722222222000  0.081835882000  0  0  0
0.750000000000  0.222222222000  0.081835882000  0  0  0
0.750000000000  0.722222222000  0.081835882000  0  0  0
0.250000000000  0.388888889000  0.081835882000  0  0  0
0.250000000000  0.888888889000  0.081835882000  0  0  0
0.750000000000  0.388888889000  0.081835882000  0  0  0
0.750000000000  0.888888889000  0.081835882000  0  0  0
0.375000000000  0.055555556000  0.081835882000  0  0  0
0.375000000000  0.555555556000  0.081835882000  0  0  0
0.875000000000  0.055555556000  0.081835882000  0  0  0
0.875000000000  0.555555556000  0.081835882000  0  0  0
0.375000000000  0.222222222000  0.081835882000  0  0  0
0.375000000000  0.722222222000  0.081835882000  0  0  0
0.875000000000  0.222222222000  0.081835882000  0  0  0
0.875000000000  0.722222222000  0.081835882000  0  0  0
0.375000000000  0.388888889000  0.081835882000  0  0  0
0.375000000000  0.888888889000  0.081835882000  0  0  0
0.875000000000  0.388888889000  0.081835882000  0  0  0
0.875000000000  0.888888889000  0.081835882000  0  0  0
0.062500000000  0.138888889000  0.081835882000  0  0  0
0.062500000000  0.638888889000  0.081835882000  0  0  0
0.562500000000  0.138888889000  0.081835882000  0  0  0
0.562500000000  0.638888889000  0.081835882000  0  0  0
0.062500000000  0.305555556000  0.081835882000  0  0  0
0.062500000000  0.805555556000  0.081835882000  0  0  0
0.562500000000  0.305555556000  0.081835882000  0  0  0
0.562500000000  0.805555556000  0.081835882000  0  0  0
0.062500000000  0.472222222000  0.081835882000  0  0  0
0.062500000000  0.972222222000  0.081835882000  0  0  0
0.562500000000  0.472222222000  0.081835882000  0  0  0
0.562500000000  0.972222222000  0.081835882000  0  0  0
0.187500000000  0.138888889000  0.081835882000  0  0  0
0.187500000000  0.638888889000  0.081835882000  0  0  0
0.687500000000  0.138888889000  0.081835882000  0  0  0
0.687500000000  0.638888889000  0.081835882000  0  0  0
0.187500000000  0.305555556000  0.081835882000  0  0  0
0.187500000000  0.805555556000  0.081835882000  0  0  0
0.687500000000  0.305555556000  0.081835882000  0  0  0
0.687500000000  0.805555556000  0.081835882000  0  0  0
0.187500000000  0.472222222000  0.081835882000  0  0  0
0.187500000000  0.972222222000  0.081835882000  0  0  0
0.687500000000  0.472222222000  0.081835882000  0  0  0
0.687500000000  0.972222222000  0.081835882000  0  0  0
0.312500000000  0.138888889000  0.081835882000  0  0  0
0.312500000000  0.638888889000  0.081835882000  0  0  0
0.812500000000  0.138888889000  0.081835882000  0  0  0
0.812500000000  0.638888889000  0.081835882000  0  0  0
0.312500000000  0.305555556000  0.081835882000  0  0  0
0.312500000000  0.805555556000  0.081835882000  0  0  0
0.812500000000  0.305555556000  0.081835882000  0  0  0
0.812500000000  0.805555556000  0.081835882000  0  0  0
0.312500000000  0.472222222000  0.081835882000  0  0  0
0.312500000000  0.972222222000  0.081835882000  0  0  0
0.812500000000  0.472222222000  0.081835882000  0  0  0
0.812500000000  0.972222222000  0.081835882000  0  0  0
0.437500000000  0.138888889000  0.081835882000  0  0  0
0.437500000000  0.638888889000  0.081835882000  0  0  0
0.937500000000  0.138888889000  0.081835882000  0  0  0
0.937500000000  0.638888889000  0.081835882000  0  0  0
0.437500000000  0.305555556000  0.081835882000  0  0  0
0.437500000000  0.805555556000  0.081835882000  0  0  0
0.937500000000  0.305555556000  0.081835882000  0  0  0
0.937500000000  0.805555556000  0.081835882000  0  0  0
0.437500000000  0.472222222000  0.081835882000  0  0  0
0.437500000000  0.972222222000  0.081835882000  0  0  0
0.937500000000  0.472222222000  0.081835882000  0  0  0
0.937500000000  0.972222222000  0.081835882000  0  0  0
0.062500000000  0.027777778000  0.163671765000  0  0  0
0.062500000000  0.527777778000  0.163671765000  0  0  0
0.562500000000  0.027777778000  0.163671765000  0  0  0
0.562500000000  0.527777778000  0.163671765000  0  0  0
0.062500000000  0.194444445000  0.163671765000  0  0  0
0.062500000000  0.694444445000  0.163671765000  0  0  0
0.562500000000  0.194444445000  0.163671765000  0  0  0
0.562500000000  0.694444445000  0.163671765000  0  0  0
0.062500000000  0.361111111000  0.163671765000  0  0  0
0.062500000000  0.861111111000  0.163671765000  0  0  0
0.562500000000  0.361111111000  0.163671765000  0  0  0
0.562500000000  0.861111111000  0.163671765000  0  0  0
0.187500000000  0.027777778000  0.163671765000  0  0  0
0.187500000000  0.527777778000  0.163671765000  0  0  0
0.687500000000  0.027777778000  0.163671765000  0  0  0
0.687500000000  0.527777778000  0.163671765000  0  0  0
0.187500000000  0.194444445000  0.163671765000  0  0  0
0.187500000000  0.694444445000  0.163671765000  0  0  0
0.687500000000  0.194444445000  0.163671765000  0  0  0
0.687500000000  0.694444445000  0.163671765000  0  0  0
0.187500000000  0.361111111000  0.163671765000  0  0  0
0.187500000000  0.861111111000  0.163671765000  0  0  0
0.687500000000  0.361111111000  0.163671765000  0  0  0
0.687500000000  0.861111111000  0.163671765000  0  0  0
0.312500000000  0.027777778000  0.163671765000  0  0  0
0.312500000000  0.527777778000  0.163671765000  0  0  0
0.812500000000  0.027777778000  0.163671765000  0  0  0
0.812500000000  0.527777778000  0.163671765000  0  0  0
0.312500000000  0.194444445000  0.163671765000  0  0  0
0.312500000000  0.694444445000  0.163671765000  0  0  0
0.812500000000  0.194444445000  0.163671765000  0  0  0
0.812500000000  0.694444445000  0.163671765000  0  0  0
0.312500000000  0.361111111000  0.163671765000  0  0  0
0.312500000000  0.861111111000  0.163671765000  0  0  0
0.812500000000  0.361111111000  0.163671765000  0  0  0
0.812500000000  0.861111111000  0.163671765000  0  0  0
0.437500000000  0.027777778000  0.163671765000  0  0  0
0.437500000000  0.527777778000  0.163671765000  0  0  0
0.937500000000  0.027777778000  0.163671765000  0  0  0
0.937500000000  0.527777778000  0.163671765000  0  0  0
0.437500000000  0.194444445000  0.163671765000  0  0  0
0.437500000000  0.694444445000  0.163671765000  0  0  0
0.937500000000  0.194444445000  0.163671765000  0  0  0
0.937500000000  0.694444445000  0.163671765000  0  0  0
0.437500000000  0.361111111000  0.163671765000  0  0  0
0.437500000000  0.861111111000  0.163671765000  0  0  0
0.937500000000  0.361111111000  0.163671765000  0  0  0
0.937500000000  0.861111111000  0.163671765000  0  0  0
0.000000000000  0.111111111000  0.163671765000  0  0  0
0.000000000000  0.611111111000  0.163671765000  0  0  0
0.500000000000  0.111111111000  0.163671765000  0  0  0
0.500000000000  0.611111111000  0.163671765000  0  0  0
0.000000000000  0.277777778000  0.163671765000  0  0  0
0.000000000000  0.777777778000  0.163671765000  0  0  0
0.500000000000  0.277777778000  0.163671765000  0  0  0
0.500000000000  0.777777778000  0.163671765000  0  0  0
0.000000000000  0.444444445000  0.163671765000  0  0  0
0.000000000000  0.944444445000  0.163671765000  0  0  0
0.500000000000  0.444444445000  0.163671765000  0  0  0
0.500000000000  0.944444445000  0.163671765000  0  0  0
0.125000000000  0.111111111000  0.163671765000  0  0  0
0.125000000000  0.611111111000  0.163671765000  0  0  0
0.625000000000  0.111111111000  0.163671765000  0  0  0
0.625000000000  0.611111111000  0.163671765000  0  0  0
0.125000000000  0.277777778000  0.163671765000  0  0  0
0.125000000000  0.777777778000  0.163671765000  0  0  0
0.625000000000  0.277777778000  0.163671765000  0  0  0
0.625000000000  0.777777778000  0.163671765000  0  0  0
0.125000000000  0.444444445000  0.163671765000  0  0  0
0.125000000000  0.944444445000  0.163671765000  0  0  0
0.625000000000  0.444444445000  0.163671765000  0  0  0
0.625000000000  0.944444445000  0.163671765000  0  0  0
0.250000000000  0.111111111000  0.163671765000  0  0  0
0.250000000000  0.611111111000  0.163671765000  0  0  0
0.750000000000  0.111111111000  0.163671765000  0  0  0
0.750000000000  0.611111111000  0.163671765000  0  0  0
0.250000000000  0.277777778000  0.163671765000  0  0  0
0.250000000000  0.777777778000  0.163671765000  0  0  0
0.750000000000  0.277777778000  0.163671765000  0  0  0
0.750000000000  0.777777778000  0.163671765000  0  0  0
0.250000000000  0.444444445000  0.163671765000  0  0  0
0.250000000000  0.944444445000  0.163671765000  0  0  0
0.750000000000  0.444444445000  0.163671765000  0  0  0
0.750000000000  0.944444445000  0.163671765000  0  0  0
0.375000000000  0.111111111000  0.163671765000  0  0  0
0.375000000000  0.611111111000  0.163671765000  0  0  0
0.875000000000  0.111111111000  0.163671765000  0  0  0
0.875000000000  0.611111111000  0.163671765000  0  0  0
0.375000000000  0.277777778000  0.163671765000  0  0  0
0.375000000000  0.777777778000  0.163671765000  0  0  0
0.875000000000  0.277777778000  0.163671765000  0  0  0
0.875000000000  0.777777778000  0.163671765000  0  0  0
0.375000000000  0.444444445000  0.163671765000  0  0  0
0.375000000000  0.944444445000  0.163671765000  0  0  0
0.875000000000  0.444444445000  0.163671765000  0  0  0
0.875000000000  0.944444445000  0.163671765000  0  0  0
0.499948144000  0.001627116000  0.245969011000  1  1  1
0.499948144000  0.501627116000  0.245969011000  1  1  1
0.999948144000  0.001627116000  0.245969011000  1  1  1
0.999948144000  0.501627116000  0.245969011000  1  1  1
0.499835253000  0.167969652000  0.245918642000  1  1  1
0.499835253000  0.667969652000  0.245918642000  1  1  1
0.999835253000  0.167969652000  0.245918642000  1  1  1
0.999835253000  0.667969652000  0.245918642000  1  1  1
0.499792399000  0.334610341000  0.245883159000  1  1  1
0.499792399000  0.834610341000  0.245883159000  1  1  1
0.999792399000  0.334610341000  0.245883159000  1  1  1
0.999792399000  0.834610341000  0.245883159000  1  1  1
0.124773657000  0.001710985000  0.245837564000  1  1  1
0.124773657000  0.501710985000  0.245837564000  1  1  1
0.624773657000  0.001710985000  0.245837564000  1  1  1
0.624773657000  0.501710985000  0.245837564000  1  1  1
0.125022349000  0.167823537000  0.246072649000  1  1  1
0.125022349000  0.667823537000  0.246072649000  1  1  1
0.625022349000  0.167823537000  0.246072649000  1  1  1
0.625022349000  0.667823537000  0.246072649000  1  1  1
0.123656297000  0.333876961000  0.247576356000  1  1  1
0.123656297000  0.833876961000  0.247576356000  1  1  1
0.623656297000  0.333876961000  0.247576356000  1  1  1
0.623656297000  0.833876961000  0.247576356000  1  1  1
0.250265517000  0.001684932000  0.245808712000  1  1  1
0.250265517000  0.501684932000  0.245808712000  1  1  1
0.750265517000  0.001684932000  0.245808712000  1  1  1
0.750265517000  0.501684932000  0.245808712000  1  1  1
0.250390622000  0.167769401000  0.246493868000  1  1  1
0.250390622000  0.667769401000  0.246493868000  1  1  1
0.750390622000  0.167769401000  0.246493868000  1  1  1
0.750390622000  0.667769401000  0.246493868000  1  1  1
0.251600502000  0.333974191000  0.247226463000  1  1  1
0.251600502000  0.833974191000  0.247226463000  1  1  1
0.751600502000  0.333974191000  0.247226463000  1  1  1
0.751600502000  0.833974191000  0.247226463000  1  1  1
0.375174196000  0.001639177000  0.245964852000  1  1  1
0.375174196000  0.501639177000  0.245964852000  1  1  1
0.875174196000  0.001639177000  0.245964852000  1  1  1
0.875174196000  0.501639177000  0.245964852000  1  1  1
0.375174199000  0.167994366000  0.246130178000  1  1  1
0.375174199000  0.667994366000  0.246130178000  1  1  1
0.875174199000  0.167994366000  0.246130178000  1  1  1
0.875174199000  0.667994366000  0.246130178000  1  1  1
0.375218133000  0.334819255000  0.245754060000  1  1  1
0.375218133000  0.834819255000  0.245754060000  1  1  1
0.875218133000  0.334819255000  0.245754060000  1  1  1
0.875218133000  0.834819255000  0.245754060000  1  1  1
0.062528735000  0.084811182000  0.245977159000  1  1  1
0.062528735000  0.584811182000  0.245977159000  1  1  1
0.562528735000  0.084811182000  0.245977159000  1  1  1
0.562528735000  0.584811182000  0.245977159000  1  1  1
0.062329473000  0.251060223000  0.245821839000  1  1  1
0.062329473000  0.751060223000  0.245821839000  1  1  1
0.562329473000  0.251060223000  0.245821839000  1  1  1
0.562329473000  0.751060223000  0.245821839000  1  1  1
0.061615136000  0.418331429000  0.245513420000  1  1  1
0.061615136000  0.918331429000  0.245513420000  1  1  1
0.561615136000  0.418331429000  0.245513420000  1  1  1
0.561615136000  0.918331429000  0.245513420000  1  1  1
0.187611623000  0.085000883000  0.246071881000  1  1  1
0.187611623000  0.585000883000  0.246071881000  1  1  1
0.687611623000  0.085000883000  0.246071881000  1  1  1
0.687611623000  0.585000883000  0.246071881000  1  1  1
0.187533953000  0.250411078000  0.245676666000  1  1  1
0.187533953000  0.750411078000  0.245676666000  1  1  1
0.687533953000  0.250411078000  0.245676666000  1  1  1
0.687533953000  0.750411078000  0.245676666000  1  1  1
0.187528579000  0.419809496000  0.247071669000  1  1  1
0.187528579000  0.919809496000  0.247071669000  1  1  1
0.687528579000  0.419809496000  0.247071669000  1  1  1
0.687528579000  0.919809496000  0.247071669000  1  1  1
0.312525447000  0.084818967000  0.245988623000  1  1  1
0.312525447000  0.584818967000  0.245988623000  1  1  1
0.812525447000  0.084818967000  0.245988623000  1  1  1
0.812525447000  0.584818967000  0.245988623000  1  1  1
0.312710479000  0.251054547000  0.245836014000  1  1  1
0.312710479000  0.751054547000  0.245836014000  1  1  1
0.812710479000  0.251054547000  0.245836014000  1  1  1
0.812710479000  0.751054547000  0.245836014000  1  1  1
0.313463556000  0.418411249000  0.245600672000  1  1  1
0.313463556000  0.918411249000  0.245600672000  1  1  1
0.813463556000  0.418411249000  0.245600672000  1  1  1
0.813463556000  0.918411249000  0.245600672000  1  1  1
0.437559353000  0.084692918000  0.245891098000  1  1  1
0.437559353000  0.584692918000  0.245891098000  1  1  1
0.937559353000  0.084692918000  0.245891098000  1  1  1
0.937559353000  0.584692918000  0.245891098000  1  1  1
0.437464014000  0.251224565000  0.246449288000  1  1  1
0.437464014000  0.751224565000  0.246449288000  1  1  1
0.937464014000  0.251224565000  0.246449288000  1  1  1
0.937464014000  0.751224565000  0.246449288000  1  1  1
0.437567743000  0.418049167000  0.246066422000  1  1  1
0.437567743000  0.918049167000  0.246066422000  1  1  1
0.937567743000  0.418049167000  0.246066422000  1  1  1
0.937567743000  0.918049167000  0.246066422000  1  1  1

O
0
32
0.391018101000  0.299481415000  0.884548039000  1  1  1
0.391018101000  0.799481415000  0.884548039000  1  1  1
0.891018101000  0.299481415000  0.884548039000  1  1  1
0.891018101000  0.799481415000  0.884548039000  1  1  1
0.290420276000  0.271934631000  0.853560883000  1  1  1
0.290420276000  0.771934631000  0.853560883000  1  1  1
0.790420276000  0.271934631000  0.853560883000  1  1  1
0.790420276000  0.771934631000  0.853560883000  1  1  1
0.195959505000  0.313623201000  0.879915781000  1  1  1
0.195959505000  0.813623201000  0.879915781000  1  1  1
0.695959505000  0.313623201000  0.879915781000  1  1  1
0.695959505000  0.813623201000  0.879915781000  1  1  1
0.264628348000  0.192249812000  0.882997322000  1  1  1
0.264628348000  0.692249812000  0.882997322000  1  1  1
0.764628348000  0.192249812000  0.882997322000  1  1  1
0.764628348000  0.692249812000  0.882997322000  1  1  1
0.390229918000  0.299457932000  0.359460150000  1  1  1
0.390229918000  0.799457932000  0.359460150000  1  1  1
0.890229918000  0.299457932000  0.359460150000  1  1  1
0.890229918000  0.799457932000  0.359460150000  1  1  1
0.290677223000  0.268884179000  0.390718324000  1  1  1
0.290677223000  0.768884179000  0.390718324000  1  1  1
0.790677223000  0.268884179000  0.390718324000  1  1  1
0.790677223000  0.768884179000  0.390718324000  1  1  1
0.192348202000  0.306296570000  0.365906844000  1  1  1
0.192348202000  0.806296570000  0.365906844000  1  1  1
0.692348202000  0.306296570000  0.365906844000  1  1  1
0.692348202000  0.806296570000  0.365906844000  1  1  1
0.268609565000  0.188357874000  0.362682638000  1  1  1
0.268609565000  0.688357874000  0.362682638000  1  1  1
0.768609565000  0.188357874000  0.362682638000  1  1  1
0.768609565000  0.688357874000  0.362682638000  1  1  1

H
0
80
0.187307222000  0.363398193000  0.276853468000  1  1  1
0.187307222000  0.863398193000  0.276853468000  1  1  1
0.687307222000  0.363398193000  0.276853468000  1  1  1
0.687307222000  0.863398193000  0.276853468000  1  1  1
0.330477328000  0.281803661000  0.376445097000  1  1  1
0.330477328000  0.781803661000  0.376445097000  1  1  1
0.830477328000  0.281803661000  0.376445097000  1  1  1
0.830477328000  0.781803661000  0.376445097000  1  1  1
0.405459641000  0.280795843000  0.332494890000  1  1  1
0.405459641000  0.780795843000  0.332494890000  1  1  1
0.905459641000  0.280795843000  0.332494890000  1  1  1
0.905459641000  0.780795843000  0.332494890000  1  1  1
0.253864209000  0.287670785000  0.380082800000  1  1  1
0.253864209000  0.787670785000  0.380082800000  1  1  1
0.753864209000  0.287670785000  0.380082800000  1  1  1
0.753864209000  0.787670785000  0.380082800000  1  1  1
0.282901462000  0.235044811000  0.378817969000  1  1  1
0.282901462000  0.735044811000  0.378817969000  1  1  1
0.782901462000  0.235044811000  0.378817969000  1  1  1
0.782901462000  0.735044811000  0.378817969000  1  1  1
0.180867257000  0.337576330000  0.374468601000  1  1  1
0.180867257000  0.837576330000  0.374468601000  1  1  1
0.680867257000  0.337576330000  0.374468601000  1  1  1
0.680867257000  0.837576330000  0.374468601000  1  1  1
0.184159083000  0.303686432000  0.331209627000  1  1  1
0.184159083000  0.803686432000  0.331209627000  1  1  1
0.684159083000  0.303686432000  0.331209627000  1  1  1
0.684159083000  0.803686432000  0.331209627000  1  1  1
0.387370465000  0.330088375000  0.344825245000  1  1  1
0.387370465000  0.830088375000  0.344825245000  1  1  1
0.887370465000  0.330088375000  0.344825245000  1  1  1
0.887370465000  0.830088375000  0.344825245000  1  1  1
0.274297045000  0.183823940000  0.327577584000  1  1  1
0.274297045000  0.683823940000  0.327577584000  1  1  1
0.774297045000  0.183823940000  0.327577584000  1  1  1
0.774297045000  0.683823940000  0.327577584000  1  1  1
0.227223321000  0.179214450000  0.368308181000  1  1  1
0.227223321000  0.679214450000  0.368308181000  1  1  1
0.727223321000  0.179214450000  0.368308181000  1  1  1
0.727223321000  0.679214450000  0.368308181000  1  1  1
0.187114338000  0.361501967000  0.970221620000  1  1  1
0.187114338000  0.861501967000  0.970221620000  1  1  1
0.687114338000  0.361501967000  0.970221620000  1  1  1
0.687114338000  0.861501967000  0.970221620000  1  1  1
0.330869513000  0.284020149000  0.867411685000  1  1  1
0.330869513000  0.784020149000  0.867411685000  1  1  1
0.830869513000  0.284020149000  0.867411685000  1  1  1
0.830869513000  0.784020149000  0.867411685000  1  1  1
0.398268270000  0.289798580000  0.918143755000  1  1  1
0.398268270000  0.789798580000  0.918143755000  1  1  1
0.898268270000  0.289798580000  0.918143755000  1  1  1
0.898268270000  0.789798580000  0.918143755000  1  1  1
0.254898397000  0.291984742000  0.864666223000  1  1  1
0.254898397000  0.791984742000  0.864666223000  1  1  1
0.754898397000  0.291984742000  0.864666223000  1  1  1
0.754898397000  0.791984742000  0.864666223000  1  1  1
0.281375363000  0.238507067000  0.865917183000  1  1  1
0.281375363000  0.738507067000  0.865917183000  1  1  1
0.781375363000  0.238507067000  0.865917183000  1  1  1
0.781375363000  0.738507067000  0.865917183000  1  1  1
0.189040651000  0.346307116000  0.874412616000  1  1  1
0.189040651000  0.846307116000  0.874412616000  1  1  1
0.689040651000  0.346307116000  0.874412616000  1  1  1
0.689040651000  0.846307116000  0.874412616000  1  1  1
0.188030422000  0.309090795000  0.914404037000  1  1  1
0.188030422000  0.809090795000  0.914404037000  1  1  1
0.688030422000  0.309090795000  0.914404037000  1  1  1
0.688030422000  0.809090795000  0.914404037000  1  1  1
0.397392515000  0.332711397000  0.885462481000  1  1  1
0.397392515000  0.832711397000  0.885462481000  1  1  1
0.897392515000  0.332711397000  0.885462481000  1  1  1
0.897392515000  0.832711397000  0.885462481000  1  1  1
0.276352950000  0.186697578000  0.916853735000  1  1  1
0.276352950000  0.686697578000  0.916853735000  1  1  1
0.776352950000  0.186697578000  0.916853735000  1  1  1
0.776352950000  0.686697578000  0.916853735000  1  1  1
0.221616138000  0.186529790000  0.882961858000  1  1  1
0.221616138000  0.686529790000  0.882961858000  1  1  1
0.721616138000  0.186529790000  0.882961858000  1  1  1
0.721616138000  0.686529790000  0.882961858000  1  1  1
