ATOMIC_SPECIES
Al 13 al.lda.lps

LATTICE_CONSTANT
7.50241114482312  // add lattice constant

LATTICE_VECTORS
0.707106781186    0.000000000000    0.000000000000    
0.000000000000    1.000000000000    0.000000000000    
0.000000000000    0.000000000000    4.949747468306    

ATOMIC_POSITIONS
Direct

Al
0.0
7
   0.0 0.0 0.00000000 1 1 1
   0.5 0.5 0.07142857 1 1 1
   0.0 0.0 0.14285714 1 1 1
   0.5 0.5 0.21428571 1 1 1
   0.0 0.0 0.28571429 1 1 1
   0.5 0.5 0.35714286 1 1 1
   0.0 0.0 0.42857143 1 1 1

