ATOMIC_SPECIES
Al 26.981539 al.lda.lps

LATTICE_CONSTANT
7.50241114482

LATTICE_VECTORS
0.707106781187 0 0 #latvec1
0.353553390593 0.612372435696 0 #latvec2
7.93454817286e-14 4.58101352351e-14 12.1256885578 #latvec3

ATOMIC_POSITIONS
Direct

Al #label
0 #magnetism
21 #number of atoms
0  0  0  m  0  0  1
0.333333333332  0.333333333332  0.0471609352343  m  0  0  1
0.666666666668  0.666666666668  0.0942686614542  m  0  0  1
1.03491931201e-16  1.03491931201e-16  0.141473702148  m  0  0  1
0.333333333332  0.333333333332  0.188851601569  m  0  0  1
0.666666666668  0.666666666668  0.236444535611  m  0  0  1
1.18603375604e-16  1.18603375605e-16  0.284128840973  m  0  0  1
0.333333333332  0.333333333332  0.331846237928  m  0  0  1
0.666666666668  0.666666666668  0.379740051398  m  0  0  1
5.03829631873e-17  5.03829631874e-17  0.427897928313  m  0  0  1
0.333333333332  0.333333333332  0.476023133855  m  0  0  1
0.666666666668  0.666666666668  0.523976866145  m  0  0  1
0  0  0.572102071687  m  0  0  1
0.333333333332  0.333333333332  0.620259948602  m  0  0  1
0.666666666668  0.666666666668  0.668153762072  m  0  0  1
1  1  0.715871159027  m  0  0  1
0.333333333332  0.333333333332  0.763555464389  m  0  0  1
0.666666666668  0.666666666668  0.811148398431  m  0  0  1
1  1  0.858526297852  m  0  0  1
0.333333333332  0.333333333332  0.905731338546  m  0  0  1
0.666666666668  0.666666666668  0.952839064766  m  0  0  1
