ATOMIC_SPECIES
H 1.00 /home/qiou/water_cluster/H_ONCV_PBE-1.0.upf
O 1.00 /home/qiou/water_cluster/O_ONCV_PBE-1.0.upf

LATTICE_CONSTANT
1.8897259886

LATTICE_VECTORS
21.16708996 0.0 0.0 
0.0 21.16708996 0.0 
0.0 0.0 21.16708996 

NUMERICAL_ORBITAL
/home/qiou/water_cluster/H_gga_10au_100Ry_3s2p.orb
/home/qiou/water_cluster/O_gga_10au_100Ry_3s3p2d.orb

ATOMIC_POSITIONS
Cartesian    # Cartesian(Unit is LATTICE_CONSTANT)

H
0.0
12
0.348365 -0.346589 -1.512112 
1.659238 0.356916 -1.148623 
0.200925 0.296803 1.517640 
0.185508 -1.142184 1.036614 
2.222577 -0.219539 0.857220 
3.649689 -0.473141 0.305787 
-1.624410 -1.231456 -0.440213 
-1.027171 -2.577446 -0.935940 
-3.322563 -0.042852 0.751943 
-2.171278 0.770168 0.124159 
-0.082320 1.399426 -0.445913 
-0.584941 2.670109 0.314186 

O
0.0
6
0.795403 0.512402 -1.576241 
0.638863 -0.555826 1.663468 
2.882899 0.096173 0.205166 
-0.781556 -1.711613 -0.598538 
-2.789349 0.029507 -0.044619 
-0.649976 1.711042 0.309216
