%BLOCK LATTICE_CART
   2.805799707700000   0.000000000000000   0.000000000000000
   1.402899853850000   2.429893824799152   0.000000000000000
   0.000000000000003   0.000000000000002  50.941608816073597
%END BLOCK LATTICE_CART
%BLOCK POSITIONS_FRAC
    Al   0.000000000000000   0.000000000000000   0.000254184562432
    Al   0.333333333300000   0.333333333300000   0.045411477803759
    Al   0.666666666700000   0.666666666700000   0.090544581001385
    Al   0.000000000000000   0.000000000000000   0.135695986917517
    Al   0.333333333300000   0.333333333300000   0.181431913970774
    Al   1.000000000000000   1.000000000000000   0.227660945347591
    Al   0.333333333300000   0.333333333300000   0.273396708436917
    Al   0.666666666700000   0.666666666700000   0.318547773721788
    Al   1.000000000000000   1.000000000000000   0.363680425122532
    Al   0.333333333300000   0.333333333300000   0.408837181215452
    Al   0.666666666700000   0.666666666700000   0.454545554248229
    Al   0.333333333300000   0.333333333300000   0.500253932772149
    Al   0.000000000000000   0.000000000000000   0.545410701396048
    Al   0.666666666700000   0.666666666700000   0.590543337590566
    Al   0.333333333300000   0.333333333300000   0.635694388981282
    Al   0.000000000000000   0.000000000000000   0.681430101326702
    Al   0.333333333300000   0.333333333300000   0.727659055752054
    Al   1.000000000000000   1.000000000000000   0.773394883271115
    Al   0.666666666700000   0.666666666700000   0.818546183865686
    Al   0.333333333300000   0.333333333300000   0.863679150523594
    Al   0.000000000000000   0.000000000000000   0.908836361536479
    Al   0.666666666700000   0.666666666700000   0.954545255182549
%END BLOCK POSITIONS_FRAC
%BLOCK SPECIES_POT
    Al al_HC.lda.recpot                                                                       
%END BLOCK SPECIES_POT
%BLOCK ION_OPTIMIZATION
           0           0           1
           0           0           1
           0           0           1
           0           0           1
           0           0           1
           0           0           1
           0           0           1
           0           0           1
           0           0           1
           0           0           1
           0           0           1
           0           0           1
           0           0           1
           0           0           1
           0           0           1
           0           0           1
           0           0           1
           0           0           1
           0           0           1
           0           0           1
           0           0           1
           0           0           1
%END BLOCK ION_OPTIMIZATION
