%BLOCK LATTICE_CART
   0.001364843536256   2.112920982074634   2.112924777820227
   2.112922244323741   0.001370614621067   2.112920271225524
   2.112921596780362   2.112915827929637   0.001366776210635
%END BLOCK LATTICE_CART
%BLOCK POSITIONS_FRAC
    Li   0.000000000000000   0.000000000000000   0.000000000000000
%END BLOCK POSITIONS_FRAC
%BLOCK SPECIES_POT
    Li li.lda.recpot                                                                          
%END BLOCK SPECIES_POT
