%BLOCK LATTICE_CART
   2.812387583300000   0.000000000000000   0.000000000000000
   1.406193791650000   2.435599092425724   0.000000000000000
   0.000000000000003   0.000000000000002  50.723450873918907
%END BLOCK LATTICE_CART
%BLOCK POSITIONS_FRAC
    Al   0.000000000000000   0.000000000000000   0.999998007350871
    Al   0.333333333300000   0.333333333300000   0.045151769081289
    Al   0.666666666700000   0.666666666700000   0.090358011966278
    Al   0.000000000000000   0.000000000000000   0.135500387086391
    Al   0.333333333300000   0.333333333300000   0.180996195855088
    Al   0.000000000000000   0.000000000000000   0.226298181936956
    Al   0.500000000000000   0.500000000000000   0.273681553499667
    Al   0.833333333300000   0.833333333300000   0.318716340064630
    Al   0.166666666700000   0.166666666700000   0.363936194232209
    Al   0.500000000000000   0.500000000000000   0.409084352140776
    Al   0.833333333300000   0.833333333300000   0.454545619108112
    Al   0.500000000000000   0.500000000000000   0.500006895796911
    Al   0.166666666700000   0.166666666700000   0.545155063086651
    Al   0.833333333300000   0.833333333300000   0.590374904570873
    Al   0.500000000000000   0.500000000000000   0.635409633429839
    Al   1.000000000000000   1.000000000000000   0.682792906202708
    Al   0.333333333300000   0.333333333300000   0.728094818995114
    Al   0.000000000000000   0.000000000000000   0.773590534534982
    Al   0.666666666700000   0.666666666700000   0.818732802306910
    Al   0.333333333300000   0.333333333300000   0.863938926664115
    Al   1.000000000000000   1.000000000000000   0.909092596728810
    Al   0.666666666700000   0.666666666700000   0.954545282876627
%END BLOCK POSITIONS_FRAC
%BLOCK SPECIES_POT
    Al al.lda.recpot                                                                          
%END BLOCK SPECIES_POT
%BLOCK ION_OPTIMIZATION
           0           0           1
           0           0           1
           0           0           1
           0           0           1
           0           0           1
           0           0           1
           0           0           1
           0           0           1
           0           0           1
           0           0           1
           0           0           1
           0           0           1
           0           0           1
           0           0           1
           0           0           1
           0           0           1
           0           0           1
           0           0           1
           0           0           1
           0           0           1
           0           0           1
           0           0           1
%END BLOCK ION_OPTIMIZATION
