ATOMIC_SPECIES
Ge 72.6 /home/mhchen_pkuhpc/mhchen_cls/lustre2/5_liurenxi/03a01_abacus-lcao-scan/pp/SG15_ONCV_v1.0_upf/Ge_ONCV_PBE-1.0.upf

LATTICE_CONSTANT
10.0722

LATTICE_VECTORS
0.5 0.5 0.000000
0.5 0.000000 0.5
0.000000 0.5 0.5

NUMERICAL_ORBITAL
/home/mhchen_pkuhpc/mhchen_cls/lustre2/5_liurenxi/03a01_abacus-lcao-scan/orb/Orb_DZP_E100_Full/Ge/Ge_gga_9au_100Ry_2s2p2d1f.orb
#/home/mhchen_pkuhpc/mhchen_cls/lustre2/5_liurenxi/03a01_abacus-lcao-scan/orb/Orb_TZDP_E100_Full/Ge/Ge_gga_9au_100Ry_3s3p3d2f.orb



ATOMIC_POSITIONS
Cartesian    # Cartesian(Unit is LATTICE_CONSTANT)
Ge
0.0
2
0.000000 0.000000 0.000000 m 0 0 0
0.250000 0.250000 0.250000 m 0 0 0