ATOMIC_SPECIES
Al 26.981539 Al_ONCV_PBE-1.2.upf

LATTICE_CONSTANT
7.4984327225523  // add lattice constant

LATTICE_VECTORS
0.707106781187    0.000000000000    0.000000000000    
0.353553390593    0.612372435696    0.000000000000    
0.000000000000    0.000000000000    11.547005383792515  

ATOMIC_POSITIONS
Direct

Al
0.0
20
    3.6376318210E-32  3.6376318210E-32  2.0645653215E-04 1 1 1
    3.3333333333E-01  3.3333333333E-01  4.9980567840E-02 1 1 1
    6.6666666667E-01  6.6666666667E-01  1.0002398381E-01 1 1 1
    3.6376318210E-32  3.6376318210E-32  1.4979070513E-01 1 1 1
    3.3333333333E-01  3.3333333333E-01  1.9986158376E-01 1 1 1
    1.0000000000E+00  1.0000000000E+00  2.5026839413E-01 1 1 1
    3.3333333333E-01  3.3333333333E-01  3.0023243974E-01 1 1 1
    6.6666666667E-01  6.6666666667E-01  3.5000350512E-01 1 1 1
    1.0000000000E+00  1.0000000000E+00  3.9980109809E-01 1 1 1
    3.3333333333E-01  3.3333333333E-01  4.5000000000E-01 1 1 1
    1.0000000000E+00  1.0000000000E+00  5.0019890191E-01 1 1 1
    6.6666666667E-01  6.6666666667E-01  5.4999649488E-01 1 1 1
    3.3333333333E-01  3.3333333333E-01  5.9976756026E-01 1 1 1
    1.0000000000E+00  1.0000000000E+00  6.4973160587E-01 1 1 1
    3.3333333333E-01  3.3333333333E-01  7.0013841624E-01 1 1 1
    3.6376318210E-32  3.6376318210E-32  7.5020929487E-01 1 1 1
    6.6666666667E-01  6.6666666667E-01  7.9997601619E-01 1 1 1
    3.3333333333E-01  3.3333333333E-01  8.5001943216E-01 1 1 1
    3.6376318210E-32  3.6376318210E-32  8.9979354347E-01 1 1 1
    6.6666666667E-01  6.6666666667E-01  9.5000000000E-01 1 1 1
