%BLOCK LATTICE_CART
56.990226616642    0.000000000000    0.000000000000    
0.000000000000    56.990226616642    0.000000000000    
0.000000000000    0.000000000000    56.990226616642    
%END BLOCK LATTICE_CART
%BLOCK POSITIONS_FRAC
Si    0.125000000000    0.125000000000    0.000000000000
Si    0.125000000000    0.000000000000    0.125000000000
Si    0.000000000000    0.125000000000    0.125000000000
Si    0.062500000000    0.062500000000    0.062500000000
Si    0.187500000000    0.187500000000    0.062500000000
Si    0.187500000000    0.062500000000    0.187500000000
Si    0.062500000000    0.187500000000    0.187500000000
Si    0.000000000000    0.000000000000    0.250000000000
Si    0.125000000000    0.125000000000    0.250000000000
Si    0.125000000000    0.000000000000    0.375000000000
Si    0.000000000000    0.125000000000    0.375000000000
Si    0.062500000000    0.062500000000    0.312500000000
Si    0.187500000000    0.187500000000    0.312500000000
Si    0.187500000000    0.062500000000    0.437500000000
Si    0.062500000000    0.187500000000    0.437500000000
Si    0.000000000000    0.000000000000    0.500000000000
Si    0.125000000000    0.125000000000    0.500000000000
Si    0.125000000000    0.000000000000    0.625000000000
Si    0.000000000000    0.125000000000    0.625000000000
Si    0.062500000000    0.062500000000    0.562500000000
Si    0.187500000000    0.187500000000    0.562500000000
Si    0.187500000000    0.062500000000    0.687500000000
Si    0.062500000000    0.187500000000    0.687500000000
Si    0.000000000000    0.000000000000    0.750000000000
Si    0.125000000000    0.125000000000    0.750000000000
Si    0.125000000000    0.000000000000    0.875000000000
Si    0.000000000000    0.125000000000    0.875000000000
Si    0.062500000000    0.062500000000    0.812500000000
Si    0.187500000000    0.187500000000    0.812500000000
Si    0.187500000000    0.062500000000    0.937500000000
Si    0.062500000000    0.187500000000    0.937500000000
Si    0.000000000000    0.250000000000    0.000000000000
Si    0.125000000000    0.375000000000    0.000000000000
Si    0.125000000000    0.250000000000    0.125000000000
Si    0.000000000000    0.375000000000    0.125000000000
Si    0.062500000000    0.312500000000    0.062500000000
Si    0.187500000000    0.437500000000    0.062500000000
Si    0.187500000000    0.312500000000    0.187500000000
Si    0.062500000000    0.437500000000    0.187500000000
Si    0.000000000000    0.250000000000    0.250000000000
Si    0.125000000000    0.375000000000    0.250000000000
Si    0.125000000000    0.250000000000    0.375000000000
Si    0.000000000000    0.375000000000    0.375000000000
Si    0.062500000000    0.312500000000    0.312500000000
Si    0.187500000000    0.437500000000    0.312500000000
Si    0.187500000000    0.312500000000    0.437500000000
Si    0.062500000000    0.437500000000    0.437500000000
Si    0.000000000000    0.250000000000    0.500000000000
Si    0.125000000000    0.375000000000    0.500000000000
Si    0.125000000000    0.250000000000    0.625000000000
Si    0.000000000000    0.375000000000    0.625000000000
Si    0.062500000000    0.312500000000    0.562500000000
Si    0.187500000000    0.437500000000    0.562500000000
Si    0.187500000000    0.312500000000    0.687500000000
Si    0.062500000000    0.437500000000    0.687500000000
Si    0.000000000000    0.250000000000    0.750000000000
Si    0.125000000000    0.375000000000    0.750000000000
Si    0.125000000000    0.250000000000    0.875000000000
Si    0.000000000000    0.375000000000    0.875000000000
Si    0.062500000000    0.312500000000    0.812500000000
Si    0.187500000000    0.437500000000    0.812500000000
Si    0.187500000000    0.312500000000    0.937500000000
Si    0.062500000000    0.437500000000    0.937500000000
Si    0.000000000000    0.500000000000    0.000000000000
Si    0.125000000000    0.625000000000    0.000000000000
Si    0.125000000000    0.500000000000    0.125000000000
Si    0.000000000000    0.625000000000    0.125000000000
Si    0.062500000000    0.562500000000    0.062500000000
Si    0.187500000000    0.687500000000    0.062500000000
Si    0.187500000000    0.562500000000    0.187500000000
Si    0.062500000000    0.687500000000    0.187500000000
Si    0.000000000000    0.500000000000    0.250000000000
Si    0.125000000000    0.625000000000    0.250000000000
Si    0.125000000000    0.500000000000    0.375000000000
Si    0.000000000000    0.625000000000    0.375000000000
Si    0.062500000000    0.562500000000    0.312500000000
Si    0.187500000000    0.687500000000    0.312500000000
Si    0.187500000000    0.562500000000    0.437500000000
Si    0.062500000000    0.687500000000    0.437500000000
Si    0.000000000000    0.500000000000    0.500000000000
Si    0.125000000000    0.625000000000    0.500000000000
Si    0.125000000000    0.500000000000    0.625000000000
Si    0.000000000000    0.625000000000    0.625000000000
Si    0.062500000000    0.562500000000    0.562500000000
Si    0.187500000000    0.687500000000    0.562500000000
Si    0.187500000000    0.562500000000    0.687500000000
Si    0.062500000000    0.687500000000    0.687500000000
Si    0.000000000000    0.500000000000    0.750000000000
Si    0.125000000000    0.625000000000    0.750000000000
Si    0.125000000000    0.500000000000    0.875000000000
Si    0.000000000000    0.625000000000    0.875000000000
Si    0.062500000000    0.562500000000    0.812500000000
Si    0.187500000000    0.687500000000    0.812500000000
Si    0.187500000000    0.562500000000    0.937500000000
Si    0.062500000000    0.687500000000    0.937500000000
Si    0.000000000000    0.750000000000    0.000000000000
Si    0.125000000000    0.875000000000    0.000000000000
Si    0.125000000000    0.750000000000    0.125000000000
Si    0.000000000000    0.875000000000    0.125000000000
Si    0.062500000000    0.812500000000    0.062500000000
Si    0.187500000000    0.937500000000    0.062500000000
Si    0.187500000000    0.812500000000    0.187500000000
Si    0.062500000000    0.937500000000    0.187500000000
Si    0.000000000000    0.750000000000    0.250000000000
Si    0.125000000000    0.875000000000    0.250000000000
Si    0.125000000000    0.750000000000    0.375000000000
Si    0.000000000000    0.875000000000    0.375000000000
Si    0.062500000000    0.812500000000    0.312500000000
Si    0.187500000000    0.937500000000    0.312500000000
Si    0.187500000000    0.812500000000    0.437500000000
Si    0.062500000000    0.937500000000    0.437500000000
Si    0.000000000000    0.750000000000    0.500000000000
Si    0.125000000000    0.875000000000    0.500000000000
Si    0.125000000000    0.750000000000    0.625000000000
Si    0.000000000000    0.875000000000    0.625000000000
Si    0.062500000000    0.812500000000    0.562500000000
Si    0.187500000000    0.937500000000    0.562500000000
Si    0.187500000000    0.812500000000    0.687500000000
Si    0.062500000000    0.937500000000    0.687500000000
Si    0.000000000000    0.750000000000    0.750000000000
Si    0.125000000000    0.875000000000    0.750000000000
Si    0.125000000000    0.750000000000    0.875000000000
Si    0.000000000000    0.875000000000    0.875000000000
Si    0.062500000000    0.812500000000    0.812500000000
Si    0.187500000000    0.937500000000    0.812500000000
Si    0.187500000000    0.812500000000    0.937500000000
Si    0.062500000000    0.937500000000    0.937500000000
Si    0.250000000000    0.000000000000    0.000000000000
Si    0.375000000000    0.125000000000    0.000000000000
Si    0.375000000000    0.000000000000    0.125000000000
Si    0.250000000000    0.125000000000    0.125000000000
Si    0.312500000000    0.062500000000    0.062500000000
Si    0.437500000000    0.187500000000    0.062500000000
Si    0.437500000000    0.062500000000    0.187500000000
Si    0.312500000000    0.187500000000    0.187500000000
Si    0.250000000000    0.000000000000    0.250000000000
Si    0.375000000000    0.125000000000    0.250000000000
Si    0.375000000000    0.000000000000    0.375000000000
Si    0.250000000000    0.125000000000    0.375000000000
Si    0.312500000000    0.062500000000    0.312500000000
Si    0.437500000000    0.187500000000    0.312500000000
Si    0.437500000000    0.062500000000    0.437500000000
Si    0.312500000000    0.187500000000    0.437500000000
Si    0.250000000000    0.000000000000    0.500000000000
Si    0.375000000000    0.125000000000    0.500000000000
Si    0.375000000000    0.000000000000    0.625000000000
Si    0.250000000000    0.125000000000    0.625000000000
Si    0.312500000000    0.062500000000    0.562500000000
Si    0.437500000000    0.187500000000    0.562500000000
Si    0.437500000000    0.062500000000    0.687500000000
Si    0.312500000000    0.187500000000    0.687500000000
Si    0.250000000000    0.000000000000    0.750000000000
Si    0.375000000000    0.125000000000    0.750000000000
Si    0.375000000000    0.000000000000    0.875000000000
Si    0.250000000000    0.125000000000    0.875000000000
Si    0.312500000000    0.062500000000    0.812500000000
Si    0.437500000000    0.187500000000    0.812500000000
Si    0.437500000000    0.062500000000    0.937500000000
Si    0.312500000000    0.187500000000    0.937500000000
Si    0.250000000000    0.250000000000    0.000000000000
Si    0.375000000000    0.375000000000    0.000000000000
Si    0.375000000000    0.250000000000    0.125000000000
Si    0.250000000000    0.375000000000    0.125000000000
Si    0.312500000000    0.312500000000    0.062500000000
Si    0.437500000000    0.437500000000    0.062500000000
Si    0.437500000000    0.312500000000    0.187500000000
Si    0.312500000000    0.437500000000    0.187500000000
Si    0.250000000000    0.250000000000    0.250000000000
Si    0.375000000000    0.375000000000    0.250000000000
Si    0.375000000000    0.250000000000    0.375000000000
Si    0.250000000000    0.375000000000    0.375000000000
Si    0.312500000000    0.312500000000    0.312500000000
Si    0.437500000000    0.437500000000    0.312500000000
Si    0.437500000000    0.312500000000    0.437500000000
Si    0.312500000000    0.437500000000    0.437500000000
Si    0.250000000000    0.250000000000    0.500000000000
Si    0.375000000000    0.375000000000    0.500000000000
Si    0.375000000000    0.250000000000    0.625000000000
Si    0.250000000000    0.375000000000    0.625000000000
Si    0.312500000000    0.312500000000    0.562500000000
Si    0.437500000000    0.437500000000    0.562500000000
Si    0.437500000000    0.312500000000    0.687500000000
Si    0.312500000000    0.437500000000    0.687500000000
Si    0.250000000000    0.250000000000    0.750000000000
Si    0.375000000000    0.375000000000    0.750000000000
Si    0.375000000000    0.250000000000    0.875000000000
Si    0.250000000000    0.375000000000    0.875000000000
Si    0.312500000000    0.312500000000    0.812500000000
Si    0.437500000000    0.437500000000    0.812500000000
Si    0.437500000000    0.312500000000    0.937500000000
Si    0.312500000000    0.437500000000    0.937500000000
Si    0.250000000000    0.500000000000    0.000000000000
Si    0.375000000000    0.625000000000    0.000000000000
Si    0.375000000000    0.500000000000    0.125000000000
Si    0.250000000000    0.625000000000    0.125000000000
Si    0.312500000000    0.562500000000    0.062500000000
Si    0.437500000000    0.687500000000    0.062500000000
Si    0.437500000000    0.562500000000    0.187500000000
Si    0.312500000000    0.687500000000    0.187500000000
Si    0.250000000000    0.500000000000    0.250000000000
Si    0.375000000000    0.625000000000    0.250000000000
Si    0.375000000000    0.500000000000    0.375000000000
Si    0.250000000000    0.625000000000    0.375000000000
Si    0.312500000000    0.562500000000    0.312500000000
Si    0.437500000000    0.687500000000    0.312500000000
Si    0.437500000000    0.562500000000    0.437500000000
Si    0.312500000000    0.687500000000    0.437500000000
Si    0.250000000000    0.500000000000    0.500000000000
Si    0.375000000000    0.625000000000    0.500000000000
Si    0.375000000000    0.500000000000    0.625000000000
Si    0.250000000000    0.625000000000    0.625000000000
Si    0.312500000000    0.562500000000    0.562500000000
Si    0.437500000000    0.687500000000    0.562500000000
Si    0.437500000000    0.562500000000    0.687500000000
Si    0.312500000000    0.687500000000    0.687500000000
Si    0.250000000000    0.500000000000    0.750000000000
Si    0.375000000000    0.625000000000    0.750000000000
Si    0.375000000000    0.500000000000    0.875000000000
Si    0.250000000000    0.625000000000    0.875000000000
Si    0.312500000000    0.562500000000    0.812500000000
Si    0.437500000000    0.687500000000    0.812500000000
Si    0.437500000000    0.562500000000    0.937500000000
Si    0.312500000000    0.687500000000    0.937500000000
Si    0.250000000000    0.750000000000    0.000000000000
Si    0.375000000000    0.875000000000    0.000000000000
Si    0.375000000000    0.750000000000    0.125000000000
Si    0.250000000000    0.875000000000    0.125000000000
Si    0.312500000000    0.812500000000    0.062500000000
Si    0.437500000000    0.937500000000    0.062500000000
Si    0.437500000000    0.812500000000    0.187500000000
Si    0.312500000000    0.937500000000    0.187500000000
Si    0.250000000000    0.750000000000    0.250000000000
Si    0.375000000000    0.875000000000    0.250000000000
Si    0.375000000000    0.750000000000    0.375000000000
Si    0.250000000000    0.875000000000    0.375000000000
Si    0.312500000000    0.812500000000    0.312500000000
Si    0.437500000000    0.937500000000    0.312500000000
Si    0.437500000000    0.812500000000    0.437500000000
Si    0.312500000000    0.937500000000    0.437500000000
Si    0.250000000000    0.750000000000    0.500000000000
Si    0.375000000000    0.875000000000    0.500000000000
Si    0.375000000000    0.750000000000    0.625000000000
Si    0.250000000000    0.875000000000    0.625000000000
Si    0.312500000000    0.812500000000    0.562500000000
Si    0.437500000000    0.937500000000    0.562500000000
Si    0.437500000000    0.812500000000    0.687500000000
Si    0.312500000000    0.937500000000    0.687500000000
Si    0.250000000000    0.750000000000    0.750000000000
Si    0.375000000000    0.875000000000    0.750000000000
Si    0.375000000000    0.750000000000    0.875000000000
Si    0.250000000000    0.875000000000    0.875000000000
Si    0.312500000000    0.812500000000    0.812500000000
Si    0.437500000000    0.937500000000    0.812500000000
Si    0.437500000000    0.812500000000    0.937500000000
Si    0.312500000000    0.937500000000    0.937500000000
Si    0.500000000000    0.000000000000    0.000000000000
Si    0.625000000000    0.125000000000    0.000000000000
Si    0.625000000000    0.000000000000    0.125000000000
Si    0.500000000000    0.125000000000    0.125000000000
Si    0.562500000000    0.062500000000    0.062500000000
Si    0.687500000000    0.187500000000    0.062500000000
Si    0.687500000000    0.062500000000    0.187500000000
Si    0.562500000000    0.187500000000    0.187500000000
Si    0.500000000000    0.000000000000    0.250000000000
Si    0.625000000000    0.125000000000    0.250000000000
Si    0.625000000000    0.000000000000    0.375000000000
Si    0.500000000000    0.125000000000    0.375000000000
Si    0.562500000000    0.062500000000    0.312500000000
Si    0.687500000000    0.187500000000    0.312500000000
Si    0.687500000000    0.062500000000    0.437500000000
Si    0.562500000000    0.187500000000    0.437500000000
Si    0.500000000000    0.000000000000    0.500000000000
Si    0.625000000000    0.125000000000    0.500000000000
Si    0.625000000000    0.000000000000    0.625000000000
Si    0.500000000000    0.125000000000    0.625000000000
Si    0.562500000000    0.062500000000    0.562500000000
Si    0.687500000000    0.187500000000    0.562500000000
Si    0.687500000000    0.062500000000    0.687500000000
Si    0.562500000000    0.187500000000    0.687500000000
Si    0.500000000000    0.000000000000    0.750000000000
Si    0.625000000000    0.125000000000    0.750000000000
Si    0.625000000000    0.000000000000    0.875000000000
Si    0.500000000000    0.125000000000    0.875000000000
Si    0.562500000000    0.062500000000    0.812500000000
Si    0.687500000000    0.187500000000    0.812500000000
Si    0.687500000000    0.062500000000    0.937500000000
Si    0.562500000000    0.187500000000    0.937500000000
Si    0.500000000000    0.250000000000    0.000000000000
Si    0.625000000000    0.375000000000    0.000000000000
Si    0.625000000000    0.250000000000    0.125000000000
Si    0.500000000000    0.375000000000    0.125000000000
Si    0.562500000000    0.312500000000    0.062500000000
Si    0.687500000000    0.437500000000    0.062500000000
Si    0.687500000000    0.312500000000    0.187500000000
Si    0.562500000000    0.437500000000    0.187500000000
Si    0.500000000000    0.250000000000    0.250000000000
Si    0.625000000000    0.375000000000    0.250000000000
Si    0.625000000000    0.250000000000    0.375000000000
Si    0.500000000000    0.375000000000    0.375000000000
Si    0.562500000000    0.312500000000    0.312500000000
Si    0.687500000000    0.437500000000    0.312500000000
Si    0.687500000000    0.312500000000    0.437500000000
Si    0.562500000000    0.437500000000    0.437500000000
Si    0.500000000000    0.250000000000    0.500000000000
Si    0.625000000000    0.375000000000    0.500000000000
Si    0.625000000000    0.250000000000    0.625000000000
Si    0.500000000000    0.375000000000    0.625000000000
Si    0.562500000000    0.312500000000    0.562500000000
Si    0.687500000000    0.437500000000    0.562500000000
Si    0.687500000000    0.312500000000    0.687500000000
Si    0.562500000000    0.437500000000    0.687500000000
Si    0.500000000000    0.250000000000    0.750000000000
Si    0.625000000000    0.375000000000    0.750000000000
Si    0.625000000000    0.250000000000    0.875000000000
Si    0.500000000000    0.375000000000    0.875000000000
Si    0.562500000000    0.312500000000    0.812500000000
Si    0.687500000000    0.437500000000    0.812500000000
Si    0.687500000000    0.312500000000    0.937500000000
Si    0.562500000000    0.437500000000    0.937500000000
Si    0.500000000000    0.500000000000    0.000000000000
Si    0.625000000000    0.625000000000    0.000000000000
Si    0.625000000000    0.500000000000    0.125000000000
Si    0.500000000000    0.625000000000    0.125000000000
Si    0.562500000000    0.562500000000    0.062500000000
Si    0.687500000000    0.687500000000    0.062500000000
Si    0.687500000000    0.562500000000    0.187500000000
Si    0.562500000000    0.687500000000    0.187500000000
Si    0.500000000000    0.500000000000    0.250000000000
Si    0.625000000000    0.625000000000    0.250000000000
Si    0.625000000000    0.500000000000    0.375000000000
Si    0.500000000000    0.625000000000    0.375000000000
Si    0.562500000000    0.562500000000    0.312500000000
Si    0.687500000000    0.687500000000    0.312500000000
Si    0.687500000000    0.562500000000    0.437500000000
Si    0.562500000000    0.687500000000    0.437500000000
Si    0.500000000000    0.500000000000    0.500000000000
Si    0.625000000000    0.625000000000    0.500000000000
Si    0.625000000000    0.500000000000    0.625000000000
Si    0.500000000000    0.625000000000    0.625000000000
Si    0.562500000000    0.562500000000    0.562500000000
Si    0.687500000000    0.687500000000    0.562500000000
Si    0.687500000000    0.562500000000    0.687500000000
Si    0.562500000000    0.687500000000    0.687500000000
Si    0.500000000000    0.500000000000    0.750000000000
Si    0.625000000000    0.625000000000    0.750000000000
Si    0.625000000000    0.500000000000    0.875000000000
Si    0.500000000000    0.625000000000    0.875000000000
Si    0.562500000000    0.562500000000    0.812500000000
Si    0.687500000000    0.687500000000    0.812500000000
Si    0.687500000000    0.562500000000    0.937500000000
Si    0.562500000000    0.687500000000    0.937500000000
Si    0.500000000000    0.750000000000    0.000000000000
Si    0.625000000000    0.875000000000    0.000000000000
Si    0.625000000000    0.750000000000    0.125000000000
Si    0.500000000000    0.875000000000    0.125000000000
Si    0.562500000000    0.812500000000    0.062500000000
Si    0.687500000000    0.937500000000    0.062500000000
Si    0.687500000000    0.812500000000    0.187500000000
Si    0.562500000000    0.937500000000    0.187500000000
Si    0.500000000000    0.750000000000    0.250000000000
Si    0.625000000000    0.875000000000    0.250000000000
Si    0.625000000000    0.750000000000    0.375000000000
Si    0.500000000000    0.875000000000    0.375000000000
Si    0.562500000000    0.812500000000    0.312500000000
Si    0.687500000000    0.937500000000    0.312500000000
Si    0.687500000000    0.812500000000    0.437500000000
Si    0.562500000000    0.937500000000    0.437500000000
Si    0.500000000000    0.750000000000    0.500000000000
Si    0.625000000000    0.875000000000    0.500000000000
Si    0.625000000000    0.750000000000    0.625000000000
Si    0.500000000000    0.875000000000    0.625000000000
Si    0.562500000000    0.812500000000    0.562500000000
Si    0.687500000000    0.937500000000    0.562500000000
Si    0.687500000000    0.812500000000    0.687500000000
Si    0.562500000000    0.937500000000    0.687500000000
Si    0.500000000000    0.750000000000    0.750000000000
Si    0.625000000000    0.875000000000    0.750000000000
Si    0.625000000000    0.750000000000    0.875000000000
Si    0.500000000000    0.875000000000    0.875000000000
Si    0.562500000000    0.812500000000    0.812500000000
Si    0.687500000000    0.937500000000    0.812500000000
Si    0.687500000000    0.812500000000    0.937500000000
Si    0.562500000000    0.937500000000    0.937500000000
Si    0.750000000000    0.000000000000    0.000000000000
Si    0.875000000000    0.125000000000    0.000000000000
Si    0.875000000000    0.000000000000    0.125000000000
Si    0.750000000000    0.125000000000    0.125000000000
Si    0.812500000000    0.062500000000    0.062500000000
Si    0.937500000000    0.187500000000    0.062500000000
Si    0.937500000000    0.062500000000    0.187500000000
Si    0.812500000000    0.187500000000    0.187500000000
Si    0.750000000000    0.000000000000    0.250000000000
Si    0.875000000000    0.125000000000    0.250000000000
Si    0.875000000000    0.000000000000    0.375000000000
Si    0.750000000000    0.125000000000    0.375000000000
Si    0.812500000000    0.062500000000    0.312500000000
Si    0.937500000000    0.187500000000    0.312500000000
Si    0.937500000000    0.062500000000    0.437500000000
Si    0.812500000000    0.187500000000    0.437500000000
Si    0.750000000000    0.000000000000    0.500000000000
Si    0.875000000000    0.125000000000    0.500000000000
Si    0.875000000000    0.000000000000    0.625000000000
Si    0.750000000000    0.125000000000    0.625000000000
Si    0.812500000000    0.062500000000    0.562500000000
Si    0.937500000000    0.187500000000    0.562500000000
Si    0.937500000000    0.062500000000    0.687500000000
Si    0.812500000000    0.187500000000    0.687500000000
Si    0.750000000000    0.000000000000    0.750000000000
Si    0.875000000000    0.125000000000    0.750000000000
Si    0.875000000000    0.000000000000    0.875000000000
Si    0.750000000000    0.125000000000    0.875000000000
Si    0.812500000000    0.062500000000    0.812500000000
Si    0.937500000000    0.187500000000    0.812500000000
Si    0.937500000000    0.062500000000    0.937500000000
Si    0.812500000000    0.187500000000    0.937500000000
Si    0.750000000000    0.250000000000    0.000000000000
Si    0.875000000000    0.375000000000    0.000000000000
Si    0.875000000000    0.250000000000    0.125000000000
Si    0.750000000000    0.375000000000    0.125000000000
Si    0.812500000000    0.312500000000    0.062500000000
Si    0.937500000000    0.437500000000    0.062500000000
Si    0.937500000000    0.312500000000    0.187500000000
Si    0.812500000000    0.437500000000    0.187500000000
Si    0.750000000000    0.250000000000    0.250000000000
Si    0.875000000000    0.375000000000    0.250000000000
Si    0.875000000000    0.250000000000    0.375000000000
Si    0.750000000000    0.375000000000    0.375000000000
Si    0.812500000000    0.312500000000    0.312500000000
Si    0.937500000000    0.437500000000    0.312500000000
Si    0.937500000000    0.312500000000    0.437500000000
Si    0.812500000000    0.437500000000    0.437500000000
Si    0.750000000000    0.250000000000    0.500000000000
Si    0.875000000000    0.375000000000    0.500000000000
Si    0.875000000000    0.250000000000    0.625000000000
Si    0.750000000000    0.375000000000    0.625000000000
Si    0.812500000000    0.312500000000    0.562500000000
Si    0.937500000000    0.437500000000    0.562500000000
Si    0.937500000000    0.312500000000    0.687500000000
Si    0.812500000000    0.437500000000    0.687500000000
Si    0.750000000000    0.250000000000    0.750000000000
Si    0.875000000000    0.375000000000    0.750000000000
Si    0.875000000000    0.250000000000    0.875000000000
Si    0.750000000000    0.375000000000    0.875000000000
Si    0.812500000000    0.312500000000    0.812500000000
Si    0.937500000000    0.437500000000    0.812500000000
Si    0.937500000000    0.312500000000    0.937500000000
Si    0.812500000000    0.437500000000    0.937500000000
Si    0.750000000000    0.500000000000    0.000000000000
Si    0.875000000000    0.625000000000    0.000000000000
Si    0.875000000000    0.500000000000    0.125000000000
Si    0.750000000000    0.625000000000    0.125000000000
Si    0.812500000000    0.562500000000    0.062500000000
Si    0.937500000000    0.687500000000    0.062500000000
Si    0.937500000000    0.562500000000    0.187500000000
Si    0.812500000000    0.687500000000    0.187500000000
Si    0.750000000000    0.500000000000    0.250000000000
Si    0.875000000000    0.625000000000    0.250000000000
Si    0.875000000000    0.500000000000    0.375000000000
Si    0.750000000000    0.625000000000    0.375000000000
Si    0.812500000000    0.562500000000    0.312500000000
Si    0.937500000000    0.687500000000    0.312500000000
Si    0.937500000000    0.562500000000    0.437500000000
Si    0.812500000000    0.687500000000    0.437500000000
Si    0.750000000000    0.500000000000    0.500000000000
Si    0.875000000000    0.625000000000    0.500000000000
Si    0.875000000000    0.500000000000    0.625000000000
Si    0.750000000000    0.625000000000    0.625000000000
Si    0.812500000000    0.562500000000    0.562500000000
Si    0.937500000000    0.687500000000    0.562500000000
Si    0.937500000000    0.562500000000    0.687500000000
Si    0.812500000000    0.687500000000    0.687500000000
Si    0.750000000000    0.500000000000    0.750000000000
Si    0.875000000000    0.625000000000    0.750000000000
Si    0.875000000000    0.500000000000    0.875000000000
Si    0.750000000000    0.625000000000    0.875000000000
Si    0.812500000000    0.562500000000    0.812500000000
Si    0.937500000000    0.687500000000    0.812500000000
Si    0.937500000000    0.562500000000    0.937500000000
Si    0.812500000000    0.687500000000    0.937500000000
Si    0.750000000000    0.750000000000    0.000000000000
Si    0.875000000000    0.875000000000    0.000000000000
Si    0.875000000000    0.750000000000    0.125000000000
Si    0.750000000000    0.875000000000    0.125000000000
Si    0.812500000000    0.812500000000    0.062500000000
Si    0.937500000000    0.937500000000    0.062500000000
Si    0.937500000000    0.812500000000    0.187500000000
Si    0.812500000000    0.937500000000    0.187500000000
Si    0.750000000000    0.750000000000    0.250000000000
Si    0.875000000000    0.875000000000    0.250000000000
Si    0.875000000000    0.750000000000    0.375000000000
Si    0.750000000000    0.875000000000    0.375000000000
Si    0.812500000000    0.812500000000    0.312500000000
Si    0.937500000000    0.937500000000    0.312500000000
Si    0.937500000000    0.812500000000    0.437500000000
Si    0.812500000000    0.937500000000    0.437500000000
Si    0.750000000000    0.750000000000    0.500000000000
Si    0.875000000000    0.875000000000    0.500000000000
Si    0.875000000000    0.750000000000    0.625000000000
Si    0.750000000000    0.875000000000    0.625000000000
Si    0.812500000000    0.812500000000    0.562500000000
Si    0.937500000000    0.937500000000    0.562500000000
Si    0.937500000000    0.812500000000    0.687500000000
Si    0.812500000000    0.937500000000    0.687500000000
Si    0.750000000000    0.750000000000    0.750000000000
Si    0.875000000000    0.875000000000    0.750000000000
Si    0.875000000000    0.750000000000    0.875000000000
Si    0.750000000000    0.875000000000    0.875000000000
Si    0.812500000000    0.812500000000    0.812500000000
Si    0.937500000000    0.937500000000    0.812500000000
Si    0.937500000000    0.812500000000    0.937500000000
Si    0.812500000000    0.937500000000    0.937500000000
%END BLOCK POSITIONS_FRAC
%BLOCK SPECIES_POT
Si si.lda.recpot
%END BLOCK SPECIES_POT
