%BLOCK LATTICE_CART
   2.805799707700000   0.000000000000000   0.000000000000000
   1.402899853850000   2.429893824799152   0.000000000000000
   0.000000000000003   0.000000000000002  51.391871151300975
%END BLOCK LATTICE_CART
%BLOCK POSITIONS_FRAC
    Al   0.000000000000000   0.000000000000000   0.999976662846806
    Al   0.333333333300000   0.333333333300000   0.045381680902829
    Al   0.666666666700000   0.666666666700000   0.090787581028878
    Al   0.000000000000000   0.000000000000000   0.136187678759795
    Al   0.333333333300000   0.333333333300000   0.181608590888350
    Al   0.000000000000000   0.000000000000000   0.227043593989110
    Al   0.600000000000000   0.600000000000000   0.272966664976247
    Al   0.933333333300000   0.933333333300000   0.318391043471183
    Al   0.266666666700000   0.266666666700000   0.363771899972797
    Al   0.600000000000000   0.600000000000000   0.409145761020229
    Al   0.933333333300000   0.933333333300000   0.454545141420232
    Al   0.600000000000000   0.600000000000000   0.499944562703521
    Al   0.266666666700000   0.266666666700000   0.545318528813626
    Al   0.933333333300000   0.933333333300000   0.590699536526223
    Al   0.600000000000000   0.600000000000000   0.636124086732706
    Al   0.000000000000000   0.000000000000000   0.682047318875877
    Al   0.333333333300000   0.333333333300000   0.727482482218741
    Al   0.000000000000000   0.000000000000000   0.772903516932363
    Al   0.666666666700000   0.666666666700000   0.818303699398652
    Al   0.333333333300000   0.333333333300000   0.863709648909325
    Al   0.000000000000000   0.000000000000000   0.909114688923695
    Al   0.666666666700000   0.666666666700000   0.954545677902570
%END BLOCK POSITIONS_FRAC
%BLOCK SPECIES_POT
    Al al.lda.recpot                                                                          
%END BLOCK SPECIES_POT
%BLOCK ION_OPTIMIZATION
           0           0           1
           0           0           1
           0           0           1
           0           0           1
           0           0           1
           0           0           1
           0           0           1
           0           0           1
           0           0           1
           0           0           1
           0           0           1
           0           0           1
           0           0           1
           0           0           1
           0           0           1
           0           0           1
           0           0           1
           0           0           1
           0           0           1
           0           0           1
           0           0           1
           0           0           1
%END BLOCK ION_OPTIMIZATION
