%BLOCK LATTICE_CART
4.235840000000    0.000000000000    0.000000000000    
0.000000000000    4.235840000000    0.000000000000    
0.000000000000    0.000000000000    4.235840000000    
%END BLOCK LATTICE_CART
%BLOCK POSITIONS_FRAC
Al    0.000000000000    0.000000000000    0.000000000000
Mg    0.000000000000    0.500000000000    0.500000000000
Mg    0.500000000000    0.500000000000    0.000000000000
Mg    0.500000000000    0.000000000000    0.500000000000
%END BLOCK POSITIONS_FRAC
%BLOCK SPECIES_POT
Al al.lda.recpot
%END BLOCK SPECIES_POT
%BLOCK SPECIES_POT
Mg mg.lda.recpot
%END BLOCK SPECIES_POT
