%BLOCK LATTICE_CART
6.267131000000    0.000000000000    0.000000000000    
0.000000000000    10.949464000000    0.000000000000    
0.000000000000    0.000000000000    5.013850000000    
%END BLOCK LATTICE_CART
%BLOCK POSITIONS_FRAC
Li    0.500000000000    0.167216000000    0.500000000000
Li    0.000000000000    0.667216000000    0.500000000000
Mg    0.250669000000    0.416517000000    0.500000000000
Mg    0.749331000000    0.416517000000    0.500000000000
Mg    0.750523000000    0.085389000000    0.000000000000
Mg    0.249477000000    0.085389000000    0.000000000000
Mg    0.000000000000    0.331002000000    0.000000000000
Mg    0.500000000000    0.331817000000    0.000000000000
Mg    0.750669000000    0.916517000000    0.500000000000
Mg    0.249331000000    0.916517000000    0.500000000000
Mg    0.250523000000    0.585389000000    0.000000000000
Mg    0.749477000000    0.585389000000    0.000000000000
Mg    0.500000000000    0.831002000000    0.000000000000
Mg    0.000000000000    0.831817000000    0.000000000000
Al    0.000000000000    0.166150000000    0.500000000000
Al    0.500000000000    0.666150000000    0.500000000000
%END BLOCK POSITIONS_FRAC
%BLOCK SPECIES_POT
Li li.gga.recpot
Mg mg.gga.recpot
Al al.gga.recpot
%END BLOCK SPECIES_POT
