%BLOCK LATTICE_CART
   2.806843720900000   0.000000000000000   0.000000000000000
   1.403421860450000   2.430797966752238   0.000000000000000
   0.000000000000003   0.000000000000002  46.074786039835296
%END BLOCK LATTICE_CART
%BLOCK POSITIONS_FRAC
    Al   0.000000000000000   0.000000000000000   0.000180366131964
    Al   0.333333333300000   0.333333333300000   0.049738023393390
    Al   0.666666666700000   0.666666666700000   0.099348082093493
    Al   0.000000000000000   0.000000000000000   0.149068636994675
    Al   0.333333333300000   0.333333333300000   0.198748954243215
    Al   0.900000000000000   0.900000000000000   0.250841496998091
    Al   0.233333333300000   0.233333333300000   0.300506811966262
    Al   0.566666666700000   0.566666666700000   0.350276761664770
    Al   0.900000000000000   0.900000000000000   0.399804990454768
    Al   0.233333333300000   0.233333333300000   0.449998285985137
    Al   0.900000000000000   0.900000000000000   0.500191821685603
    Al   0.566666666700000   0.566666666700000   0.549720545502882
    Al   0.233333333300000   0.233333333300000   0.599491196466768
    Al   0.900000000000000   0.900000000000000   0.649157216432404
    Al   0.333333333300000   0.333333333300000   0.701250854466536
    Al   0.000000000000000   0.000000000000000   0.750932065216379
    Al   0.666666666700000   0.666666666700000   0.800653683382486
    Al   0.333333333300000   0.333333333300000   0.850264566265064
    Al   0.000000000000000   0.000000000000000   0.899822660753334
    Al   0.666666666700000   0.666666666700000   0.950001592133815
%END BLOCK POSITIONS_FRAC
%BLOCK SPECIES_POT
    Al al.lda.recpot                                                                          
%END BLOCK SPECIES_POT
%BLOCK ION_OPTIMIZATION
           0           0           1
           0           0           1
           0           0           1
           0           0           1
           0           0           1
           0           0           1
           0           0           1
           0           0           1
           0           0           1
           0           0           1
           0           0           1
           0           0           1
           0           0           1
           0           0           1
           0           0           1
           0           0           1
           0           0           1
           0           0           1
           0           0           1
           0           0           1
%END BLOCK ION_OPTIMIZATION
