%BLOCK LATTICE_CART
   2.805799707700000   0.000000000000000   0.000000000000000
   1.402899853850000   2.429893824799152   0.000000000000000
   0.000000000000003   0.000000000000002  50.631447707348613
%END BLOCK LATTICE_CART
%BLOCK POSITIONS_FRAC
    Al   0.000000000000000   0.000000000000000   0.999983827406534
    Al   0.333333333300000   0.333333333300000   0.045173850266813
    Al   0.666666666700000   0.666666666700000   0.090320007239706
    Al   0.000000000000000   0.000000000000000   0.135524057199544
    Al   0.333333333300000   0.333333333300000   0.180990826983000
    Al   0.000000000000000   0.000000000000000   0.226544441505004
    Al   0.500000000000000   0.500000000000000   0.273459666925616
    Al   0.833333333300000   0.833333333300000   0.318781859488030
    Al   0.166666666700000   0.166666666700000   0.363939201396557
    Al   0.500000000000000   0.500000000000000   0.409121146199784
    Al   0.833333333300000   0.833333333300000   0.454542929853287
    Al   0.500000000000000   0.500000000000000   0.499964886943173
    Al   0.166666666700000   0.166666666700000   0.545147491003472
    Al   0.833333333300000   0.833333333300000   0.590305754024677
    Al   0.500000000000000   0.500000000000000   0.635629227601358
    Al   1.000000000000000   1.000000000000000   0.682545774529038
    Al   0.333333333300000   0.333333333300000   0.728100867104946
    Al   1.000000000000000   1.000000000000000   0.773568976250445
    Al   0.666666666700000   0.666666666700000   0.818774255463884
    Al   0.333333333300000   0.333333333300000   0.863921317010376
    Al   0.000000000000000   0.000000000000000   0.909111961667795
    Al   0.666666666700000   0.666666666700000   0.954547982977875
%END BLOCK POSITIONS_FRAC
%BLOCK SPECIES_POT
    Al al_HC.lda.recpot                                                                       
%END BLOCK SPECIES_POT
%BLOCK ION_OPTIMIZATION
           0           0           1
           0           0           1
           0           0           1
           0           0           1
           0           0           1
           0           0           1
           0           0           1
           0           0           1
           0           0           1
           0           0           1
           0           0           1
           0           0           1
           0           0           1
           0           0           1
           0           0           1
           0           0           1
           0           0           1
           0           0           1
           0           0           1
           0           0           1
           0           0           1
           0           0           1
%END BLOCK ION_OPTIMIZATION
