%BLOCK LATTICE_CART
  -0.000022471860123   1.970204235469743   1.970204227194288
   1.970204271598367  -0.000022469007452   1.970204260610920
   1.970204270836651   1.970204268124660  -0.000022460698892
%END BLOCK LATTICE_CART
%BLOCK POSITIONS_FRAC
    Al   0.000000000000000   0.000000000000000   0.000000000000000
%END BLOCK POSITIONS_FRAC
%BLOCK SPECIES_POT
    Al al.lda.recpot                                                                          
%END BLOCK SPECIES_POT
