%BLOCK LATTICE_CART
   2.833725690800000   0.000000000000000   0.000000000000000
   1.416862845400000   2.454078435589407   0.000000000000000
   0.000000000000003   0.000000000000002  46.276840738681507
%END BLOCK LATTICE_CART
%BLOCK POSITIONS_FRAC
    Al   0.000000000000000   0.000000000000000   0.999964578151776
    Al   0.333333333300000   0.333333333300000   0.049983489083224
    Al   0.666666666700000   0.666666666700000   0.100000211424747
    Al   0.000000000000000   0.000000000000000   0.149999306407697
    Al   0.333333333300000   0.333333333300000   0.199999775413349
    Al   0.666666666700000   0.666666666700000   0.250000326978888
    Al   0.000000000000000   0.000000000000000   0.299999579346068
    Al   0.333333333300000   0.333333333300000   0.350016385062938
    Al   0.666666666700000   0.666666666700000   0.400035291754566
    Al   0.000000000000000   0.000000000000000   0.449999910726946
    Al   0.666666666700000   0.666666666700000   0.499964603769372
    Al   0.333333333300000   0.333333333300000   0.549983625610077
    Al   0.000000000000000   0.000000000000000   0.600000446604241
    Al   0.666666666700000   0.666666666700000   0.649999616366970
    Al   0.333333333300000   0.333333333300000   0.700000130452921
    Al   0.000000000000000   0.000000000000000   0.750000692603199
    Al   0.666666666700000   0.666666666700000   0.799999919961830
    Al   0.333333333300000   0.333333333300000   0.850016666722244
    Al   0.000000000000000   0.000000000000000   0.900035487432187
    Al   0.666666666700000   0.666666666700000   0.950000000226770
%END BLOCK POSITIONS_FRAC
%BLOCK SPECIES_POT
    Al al.lda.recpot                                                                          
%END BLOCK SPECIES_POT
%BLOCK ION_OPTIMIZATION
           0           0           1
           0           0           1
           0           0           1
           0           0           1
           0           0           1
           0           0           1
           0           0           1
           0           0           1
           0           0           1
           0           0           1
           0           0           1
           0           0           1
           0           0           1
           0           0           1
           0           0           1
           0           0           1
           0           0           1
           0           0           1
           0           0           1
           0           0           1
%END BLOCK ION_OPTIMIZATION
