%BLOCK LATTICE_CART
3.837884485640    0.000000000000    0.000000000000    
0.000000000000    3.837884485640    0.000000000000    
0.000000000000    0.000000000000    27.137941452066894    
%END BLOCK LATTICE_CART
%BLOCK POSITIONS_FRAC
Si    0.000000000000    0.000000000000    0.0
Si    0.500000000000    0.000000000000    0.05
Si    0.500000000000    0.500000000000    0.1
Si    0.000000000000    0.500000000000    0.15
Si    0.000000000000    0.000000000000    0.2
Si    0.500000000000    0.000000000000    0.25
Si    0.500000000000    0.500000000000    0.3
Si    0.000000000000    0.500000000000    0.35
Si    0.000000000000    0.000000000000    0.4
Si    0.500000000000    0.000000000000    0.45
Si    0.500000000000    0.500000000000    0.5
Si    0.000000000000    0.500000000000    0.55
Si    0.000000000000    0.000000000000    0.6
%END BLOCK POSITIONS_FRAC
%BLOCK SPECIES_POT
Si si.lda.recpot
%END BLOCK SPECIES_POT
