%BLOCK LATTICE_CART
   2.819325635119448   0.003169217014289  -0.000000029681858
  -1.406918211538389   2.443192258635150   0.000000004239319
  -0.000000019413700   0.000000002208461   4.636136217217460
%END BLOCK LATTICE_CART
%BLOCK POSITIONS_FRAC
    Al   0.000000000000000   0.000000000000000   0.000000000000000
    Al   0.666666666667000   0.333333333333000   0.500000000000000
%END BLOCK POSITIONS_FRAC
%BLOCK SPECIES_POT
    Al al.lda.recpot                                                                          
%END BLOCK SPECIES_POT
