INPUT_PARAMETERS
#Parameters (1.General)
suffix          CNT_0.06
calculation     relax
ntype           1
nbands          2100
symmetry        0

#Parameters (2.Iteration)
ecutwfc         60
dr2             1e-6
niter           400

#Parameters (3.Basis)
basis_type      lcao
ks_solver       genelpa
gamma_only      1

#Parameters (4.Smearing)
smearing        gaussian
sigma           0.001

#Parameters (5.Mixing)
mixing_type     pulay
mixing_beta     0.1
mixing_ndim     20

force           1
stress          1

nstep           1000
force_thr_ev    0.04
move_method     cg
out_stru        1
