Transformation
1
17.00000000000000  0.00000000000000  0.00000000000000
0.00000000000000  17.99999999999999  0.00000000000000
0.00000000000000  0.00000000000000  107.96506500000000
  C
  1000
Direct
0.63504300000000  0.50874900000000  0.00666300000000  T  T  T
0.64519300000000  0.44486400000000  0.01327100000000  T  T  T
0.64519100000000  0.44534200000000  0.02669000000000  T  T  T
0.63474200000000  0.50967200000000  0.03336300000000  T  T  T
0.63523100000000  0.50816200000000  0.04724600000000  T  T  T
0.64515300000000  0.44034500000000  0.05355700000000  T  T  T
0.64507500000000  0.43743500000000  0.06712200000000  T  T  T
0.63583100000000  0.50625400000000  0.07494800000000  T  T  T
0.63896500000000  0.49503100000000  0.08906600000000  T  T  T
0.64458100000000  0.42849300000000  0.09388200000000  T  T  T
0.64485800000000  0.43264100000000  0.10697400000000  T  T  T
0.63725700000000  0.50144100000000  0.11082100000000  T  T  T
0.63170300000000  0.51830600000000  0.12503800000000  T  T  T
0.64446500000000  0.46184000000000  0.13230400000000  T  T  T
0.64437600000000  0.46287600000000  0.14493900000000  T  T  T
0.63027200000000  0.52200100000000  0.15173200000000  T  T  T
0.63220900000000  0.51694600000000  0.16471300000000  T  T  T
0.64512300000000  0.44986800000000  0.16977000000000  T  T  T
0.64502800000000  0.43615600000000  0.18154500000000  T  T  T
0.63732900000000  0.50118800000000  0.19072000000000  T  T  T
0.63845900000000  0.49701600000000  0.20405400000000  T  T  T
0.64493200000000  0.43401700000000  0.21037600000000  T  T  T
0.64486200000000  0.43271100000000  0.22322300000000  T  T  T
0.63737900000000  0.50100800000000  0.23037500000000  T  T  T
0.63324100000000  0.51408500000000  0.24365900000000  T  T  T
0.64498200000000  0.45381600000000  0.25382000000000  T  T  T
0.64335500000000  0.47205500000000  0.26803800000000  T  T  T
0.62309100000000  0.53808300000000  0.27346300000000  T  T  T
0.62697500000000  0.52982900000000  0.28675200000000  T  T  T
0.64444200000000  0.46211900000000  0.29063900000000  T  T  T
0.64519300000000  0.44471500000000  0.30520500000000  T  T  T
0.63361400000000  0.51301800000000  0.31221700000000  T  T  T
0.62720500000000  0.52930900000000  0.32452200000000  T  T  T
0.64492000000000  0.43377400000000  0.33896900000000  T  T  T
0.64513700000000  0.43961200000000  0.35058600000000  T  T  T
0.63517200000000  0.50834600000000  0.35474600000000  T  T  T
0.63018300000000  0.52222300000000  0.36705600000000  T  T  T
0.64503700000000  0.45250500000000  0.37485200000000  T  T  T
0.64497200000000  0.45403800000000  0.38763800000000  T  T  T
0.62876900000000  0.52567700000000  0.39434400000000  T  T  T
0.62689800000000  0.53000100000000  0.40847400000000  T  T  T
0.64436000000000  0.46306000000000  0.41534100000000  T  T  T
0.64461200000000  0.45999600000000  0.42892400000000  T  T  T
0.62639200000000  0.53112700000000  0.43866000000000  T  T  T
0.63085400000000  0.52052100000000  0.44978400000000  T  T  T
0.64517000000000  0.44752700000000  0.45503500000000  T  T  T
0.64519300000000  0.44461200000000  0.46727700000000  T  T  T
0.63353300000000  0.51325100000000  0.47411100000000  T  T  T
0.63299600000000  0.51477700000000  0.48559000000000  T  T  T
0.64471500000000  0.45854300000000  0.49286600000000  T  T  T
0.64039500000000  0.48891200000000  0.50572300000000  T  T  T
0.64509100000000  0.45096900000000  0.51619800000000  T  T  T
0.64248700000000  0.47791800000000  0.52980300000000  T  T  T
0.64140700000000  0.40489700000000  0.53690500000000  T  T  T
0.64448200000000  0.42725200000000  0.55828100000000  T  T  T
0.63459100000000  0.51013000000000  0.55901600000000  T  T  T
0.62966000000000  0.52352000000000  0.57163600000000  T  T  T
0.64506100000000  0.45185500000000  0.57832700000000  T  T  T
0.64492900000000  0.43395600000000  0.59100800000000  T  T  T
0.61917200000000  0.54559800000000  0.60098400000000  T  T  T
0.64240600000000  0.47841000000000  0.60101300000000  T  T  T
0.64459100000000  0.42861900000000  0.61195100000000  T  T  T
0.64518900000000  0.44305800000000  0.62583000000000  T  T  T
0.63389600000000  0.51219900000000  0.63188800000000  T  T  T
0.63378400000000  0.51252600000000  0.64625100000000  T  T  T
0.64519300000000  0.44475500000000  0.65311900000000  T  T  T
0.64519200000000  0.44501500000000  0.66665000000000  T  T  T
0.63371200000000  0.51273500000000  0.67331900000000  T  T  T
0.63377700000000  0.51254700000000  0.68678800000000  T  T  T
0.64519300000000  0.44474600000000  0.69327900000000  T  T  T
0.64518900000000  0.44305600000000  0.70645500000000  T  T  T
0.63656500000000  0.50383000000000  0.72728400000000  T  T  T
0.63487700000000  0.50925800000000  0.71353200000000  T  T  T
0.64395600000000  0.42177500000000  0.73257100000000  T  T  T
0.64465900000000  0.42953400000000  0.75579800000000  T  T  T
0.63382400000000  0.51240800000000  0.75672600000000  T  T  T
0.62836600000000  0.52663200000000  0.76801400000000  T  T  T
0.64311200000000  0.47381800000000  0.77585600000000  T  T  T
0.63628900000000  0.50475500000000  0.78781000000000  T  T  T
0.64246000000000  0.47807900000000  0.79751000000000  T  T  T
0.63745600000000  0.50073400000000  0.80834400000000  T  T  T
0.64505600000000  0.45199600000000  0.81301500000000  T  T  T
0.64283400000000  0.47570700000000  0.82388600000000  T  T  T
0.64514100000000  0.44910700000000  0.83416600000000  T  T  T
0.64040300000000  0.48887700000000  0.84668400000000  T  T  T
0.64499900000000  0.43544800000000  0.85537400000000  T  T  T
0.64514100000000  0.44911000000000  0.86841500000000  T  T  T
0.62813300000000  0.52717800000000  0.87248800000000  T  T  T
0.61129400000000  0.55886300000000  0.88489100000000  T  T  T
0.64517800000000  0.44691900000000  0.89710200000000  T  T  T
0.64500600000000  0.43562100000000  0.90920300000000  T  T  T
0.63809900000000  0.49838100000000  0.91553700000000  T  T  T
0.63788700000000  0.49917100000000  0.92819800000000  T  T  T
0.64420800000000  0.42421400000000  0.93538100000000  T  T  T
0.64424500000000  0.42458900000000  0.94895700000000  T  T  T
0.63886300000000  0.49543700000000  0.95496300000000  T  T  T
0.63867200000000  0.49618900000000  0.96794100000000  T  T  T
0.64464500000000  0.42934800000000  0.97529800000000  T  T  T
0.64493400000000  0.43405200000000  0.98815400000000  T  T  T
0.63630700000000  0.50469300000000  0.99395500000000  T  T  T
0.55056700000000  0.62169500000000  0.00598500000000  T  T  T
0.60210400000000  0.57206600000000  0.01318500000000  T  T  T
0.60284900000000  0.57106900000000  0.02696600000000  T  T  T
0.55903000000000  0.61549500000000  0.03359600000000  T  T  T
0.55948100000000  0.61514800000000  0.04724100000000  T  T  T
0.60491800000000  0.56823800000000  0.05400800000000  T  T  T
0.60368200000000  0.56994000000000  0.06852300000000  T  T  T
0.55210700000000  0.62061000000000  0.07447100000000  T  T  T
0.53942200000000  0.62901600000000  0.08901400000000  T  T  T
0.57841900000000  0.59881200000000  0.09984100000000  T  T  T
0.62002100000000  0.54403000000000  0.09997700000000  T  T  T
0.53556400000000  0.63134500000000  0.11098300000000  T  T  T
0.54536100000000  0.62522900000000  0.12518900000000  T  T  T
0.59600300000000  0.57981700000000  0.13113500000000  T  T  T
0.59629200000000  0.57946600000000  0.14578400000000  T  T  T
0.54493400000000  0.62550900000000  0.15294600000000  T  T  T
0.54852900000000  0.62310300000000  0.16670000000000  T  T  T
0.60098600000000  0.57354100000000  0.17228200000000  T  T  T
0.60559800000000  0.56728500000000  0.18540700000000  T  T  T
0.56232000000000  0.61292100000000  0.19281800000000  T  T  T
0.56497300000000  0.61077400000000  0.20530900000000  T  T  T
0.60891900000000  0.56247800000000  0.21140600000000  T  T  T
0.61017000000000  0.56059200000000  0.22411400000000  T  T  T
0.56655800000000  0.60946000000000  0.23186700000000  T  T  T
0.55427900000000  0.61904800000000  0.25591000000000  T  T  T
0.58736200000000  0.58970000000000  0.24492800000000  T  T  T
0.57823300000000  0.59899100000000  0.26875000000000  T  T  T
0.53508000000000  0.63163100000000  0.27830200000000  T  T  T
0.54946900000000  0.62245800000000  0.29002900000000  T  T  T
0.59665600000000  0.57902000000000  0.29427600000000  T  T  T
0.60182300000000  0.57243900000000  0.30629500000000  T  T  T
0.55693800000000  0.61708300000000  0.31512000000000  T  T  T
0.58443100000000  0.59280100000000  0.32668400000000  T  T  T
0.63781100000000  0.49945100000000  0.33452300000000  T  T  T
0.61948300000000  0.54502700000000  0.34434000000000  T  T  T
0.57623800000000  0.60088400000000  0.34082600000000  T  T  T
0.53133400000000  0.63378600000000  0.36498600000000  T  T  T
0.58989600000000  0.58692200000000  0.37288000000000  T  T  T
0.58884500000000  0.58808500000000  0.38720000000000  T  T  T
0.53208500000000  0.63336100000000  0.39523000000000  T  T  T
0.53292200000000  0.63288400000000  0.40692500000000  T  T  T
0.57800000000000  0.59921400000000  0.41418600000000  T  T  T
0.55529700000000  0.61830300000000  0.42674000000000  T  T  T
0.57695700000000  0.60020700000000  0.43576600000000  T  T  T
0.51757400000000  0.64095500000000  0.44651900000000  T  T  T
0.59772300000000  0.57770300000000  0.45842600000000  T  T  T
0.60257300000000  0.57143900000000  0.46859600000000  T  T  T
0.55293200000000  0.62002100000000  0.47517900000000  T  T  T
0.55229600000000  0.62047600000000  0.48654600000000  T  T  T
0.60128100000000  0.57315400000000  0.49208000000000  T  T  T
0.60834400000000  0.56332900000000  0.50409500000000  T  T  T
0.56587100000000  0.61003200000000  0.51222200000000  T  T  T
0.56569000000000  0.61018200000000  0.52659100000000  T  T  T
0.61284000000000  0.55642200000000  0.53514200000000  T  T  T
0.60531200000000  0.56768700000000  0.54903500000000  T  T  T
0.54297600000000  0.62678000000000  0.55455900000000  T  T  T
0.53822800000000  0.62974800000000  0.56859500000000  T  T  T
0.59499100000000  0.58103600000000  0.57668200000000  T  T  T
0.58799700000000  0.58901200000000  0.59007800000000  T  T  T
0.53775300000000  0.63003600000000  0.59453700000000  T  T  T
0.53873100000000  0.62944100000000  0.60703300000000  T  T  T
0.59130000000000  0.58534000000000  0.61145600000000  T  T  T
0.59979600000000  0.57508200000000  0.62546800000000  T  T  T
0.54884100000000  0.62288900000000  0.63302100000000  T  T  T
0.55034600000000  0.62184900000000  0.64652200000000  T  T  T
0.60069500000000  0.57392000000000  0.65306700000000  T  T  T
0.60060000000000  0.57404400000000  0.66662700000000  T  T  T
0.54852100000000  0.62310800000000  0.67328100000000  T  T  T
0.54891000000000  0.62284200000000  0.68662200000000  T  T  T
0.60132100000000  0.57310200000000  0.69342400000000  T  T  T
0.60176700000000  0.57251300000000  0.70696900000000  T  T  T
0.55250600000000  0.62032600000000  0.71331600000000  T  T  T
0.55093100000000  0.62144100000000  0.72653600000000  T  T  T
0.60590100000000  0.56685800000000  0.73425200000000  T  T  T
0.60317500000000  0.57062900000000  0.74737600000000  T  T  T
0.54720400000000  0.62400000000000  0.75296100000000  T  T  T
0.54322200000000  0.62662200000000  0.76637400000000  T  T  T
0.59368400000000  0.58258600000000  0.77311100000000  T  T  T
0.59801700000000  0.57733600000000  0.78541300000000  T  T  T
0.54566300000000  0.62502900000000  0.79352600000000  T  T  T
0.53899000000000  0.62928200000000  0.80821900000000  T  T  T
0.58249500000000  0.59478600000000  0.81863500000000  T  T  T
0.62130100000000  0.54160400000000  0.81733600000000  T  T  T
0.54680200000000  0.62427100000000  0.82982100000000  T  T  T
0.55786200000000  0.61638600000000  0.84367200000000  T  T  T
0.60708500000000  0.56516700000000  0.85094600000000  T  T  T
0.60023900000000  0.57451200000000  0.86420700000000  T  T  T
0.54818300000000  0.62333900000000  0.86992500000000  T  T  T
0.55277900000000  0.62013100000000  0.88241800000000  T  T  T
0.62751900000000  0.52859400000000  0.89520400000000  T  T  T
0.61332200000000  0.55564600000000  0.90762500000000  T  T  T
0.55906900000000  0.61546500000000  0.91309900000000  T  T  T
0.55920800000000  0.61535800000000  0.92735900000000  T  T  T
0.60958200000000  0.56148400000000  0.93443800000000  T  T  T
0.60956000000000  0.56151700000000  0.94790400000000  T  T  T
0.56213600000000  0.61306700000000  0.95480100000000  T  T  T
0.56819300000000  0.60807900000000  0.96927700000000  T  T  T
0.61210600000000  0.55759000000000  0.97426800000000  T  T  T
0.61016600000000  0.56059800000000  0.98687500000000  T  T  T
0.56117800000000  0.61382600000000  0.99135700000000  T  T  T
0.40740100000000  0.66486600000000  0.00653700000000  T  T  T
0.48386300000000  0.65412500000000  0.01308700000000  T  T  T
0.49694600000000  0.64970200000000  0.02894500000000  T  T  T
0.37550900000000  0.66222900000000  0.04067100000000  T  T  T
0.44606500000000  0.66251200000000  0.04039800000000  T  T  T
0.50033200000000  0.64842000000000  0.05173700000000  T  T  T
0.48891500000000  0.65251500000000  0.06620100000000  T  T  T
0.42164200000000  0.66470700000000  0.07220600000000  T  T  T
0.41787000000000  0.66482900000000  0.08624800000000  T  T  T
0.47579400000000  0.65644900000000  0.09317700000000  T  T  T
0.47273700000000  0.65725100000000  0.10633200000000  T  T  T
0.40654600000000  0.66485000000000  0.11257800000000  T  T  T
0.40640300000000  0.66484600000000  0.12640100000000  T  T  T
0.47975000000000  0.65534700000000  0.13287900000000  T  T  T
0.48161200000000  0.65480400000000  0.14694500000000  T  T  T
0.40638900000000  0.66484600000000  0.15420000000000  T  T  T
0.40728800000000  0.66486400000000  0.16855900000000  T  T  T
0.48476700000000  0.65384600000000  0.17465400000000  T  T  T
0.49894400000000  0.64895200000000  0.18868100000000  T  T  T
0.37701900000000  0.66244900000000  0.20034900000000  T  T  T
0.44874500000000  0.66212100000000  0.20005900000000  T  T  T
0.50165500000000  0.64790300000000  0.21073100000000  T  T  T
0.49276800000000  0.65120500000000  0.22553700000000  T  T  T
0.40997200000000  0.66489800000000  0.23331800000000  T  T  T
0.41043700000000  0.66490100000000  0.24742400000000  T  T  T
0.47633000000000  0.65630400000000  0.25633200000000  T  T  T
0.43766300000000  0.66354400000000  0.26841600000000  T  T  T
0.46718200000000  0.65860200000000  0.27735900000000  T  T  T
0.43389800000000  0.66391100000000  0.29021500000000  T  T  T
0.49026900000000  0.65206300000000  0.29714700000000  T  T  T
0.49092400000000  0.65184100000000  0.31054500000000  T  T  T
0.41749400000000  0.66483800000000  0.31703400000000  T  T  T
0.40250800000000  0.66473100000000  0.33089800000000  T  T  T
0.45289300000000  0.66145600000000  0.34402400000000  T  T  T
0.52647900000000  0.63644700000000  0.34823400000000  T  T  T
0.40144400000000  0.66468900000000  0.35210000000000  T  T  T
0.40434800000000  0.66479300000000  0.36355500000000  T  T  T
0.45705400000000  0.66071500000000  0.37042500000000  T  T  T
0.41915400000000  0.66479400000000  0.38336600000000  T  T  T
0.41644700000000  0.66486000000000  0.40417100000000  T  T  T
0.44908700000000  0.66206800000000  0.39248400000000  T  T  T
0.46423700000000  0.65926200000000  0.41115100000000  T  T  T
0.44012000000000  0.66327200000000  0.42164000000000  T  T  T
0.47365900000000  0.65701300000000  0.42869800000000  T  T  T
0.44748800000000  0.66230800000000  0.43972400000000  T  T  T
0.53221800000000  0.63328600000000  0.45565000000000  T  T  T
0.49795500000000  0.64932600000000  0.46764100000000  T  T  T
0.41174900000000  0.66490500000000  0.47443100000000  T  T  T
0.41802800000000  0.66482500000000  0.48748500000000  T  T  T
0.49441500000000  0.65062300000000  0.49315100000000  T  T  T
0.49932000000000  0.64880900000000  0.50581400000000  T  T  T
0.44631100000000  0.66247700000000  0.51149700000000  T  T  T
0.43525100000000  0.66378600000000  0.52300000000000  T  T  T
0.49113000000000  0.65177100000000  0.53219700000000  T  T  T
0.47570400000000  0.65647300000000  0.54555200000000  T  T  T
0.38536200000000  0.66349000000000  0.55018800000000  T  T  T
0.35181700000000  0.65751100000000  0.56363100000000  T  T  T
0.47240200000000  0.65733600000000  0.57638400000000  T  T  T
0.47994400000000  0.65529100000000  0.58867200000000  T  T  T
0.41358300000000  0.66489800000000  0.59459500000000  T  T  T
0.41030300000000  0.66490000000000  0.60712300000000  T  T  T
0.48004200000000  0.65526300000000  0.61361200000000  T  T  T
0.48246800000000  0.65454900000000  0.62664500000000  T  T  T
0.41316600000000  0.66490100000000  0.63307900000000  T  T  T
0.41152000000000  0.66490500000000  0.64639500000000  T  T  T
0.48381700000000  0.65413900000000  0.65333600000000  T  T  T
0.48261400000000  0.65450500000000  0.66643900000000  T  T  T
0.40963800000000  0.66489600000000  0.67297100000000  T  T  T
0.41058400000000  0.66490200000000  0.68589800000000  T  T  T
0.48646200000000  0.65331200000000  0.69295600000000  T  T  T
0.48619700000000  0.65339600000000  0.70592000000000  T  T  T
0.41869200000000  0.66480800000000  0.71143500000000  T  T  T
0.40838200000000  0.66488100000000  0.72304100000000  T  T  T
0.48229600000000  0.65460000000000  0.73233300000000  T  T  T
0.47858300000000  0.65568000000000  0.74502200000000  T  T  T
0.41391900000000  0.66489500000000  0.75073200000000  T  T  T
0.40864600000000  0.66488500000000  0.76358900000000  T  T  T
0.47802700000000  0.65583600000000  0.77213500000000  T  T  T
0.47544100000000  0.65654300000000  0.78622400000000  T  T  T
0.40454100000000  0.66479900000000  0.79317700000000  T  T  T
0.40840400000000  0.66488200000000  0.80713000000000  T  T  T
0.47634100000000  0.65630100000000  0.81326600000000  T  T  T
0.48121000000000  0.65492300000000  0.82579000000000  T  T  T
0.42309100000000  0.66464500000000  0.83261300000000  T  T  T
0.42674600000000  0.66445000000000  0.84463900000000  T  T  T
0.49306500000000  0.65110100000000  0.85093100000000  T  T  T
0.49114900000000  0.65176400000000  0.86372700000000  T  T  T
0.41977200000000  0.66477500000000  0.86967200000000  T  T  T
0.40852800000000  0.66488300000000  0.88212300000000  T  T  T
0.48322200000000  0.65432100000000  0.89090100000000  T  T  T
0.48499900000000  0.65377400000000  0.90560600000000  T  T  T
0.40675000000000  0.66485400000000  0.91461400000000  T  T  T
0.42948900000000  0.66426800000000  0.92988600000000  T  T  T
0.50349200000000  0.64717000000000  0.93413100000000  T  T  T
0.50504600000000  0.64653700000000  0.94830600000000  T  T  T
0.43977100000000  0.66331200000000  0.95253500000000  T  T  T
0.41017700000000  0.66490000000000  0.96703600000000  T  T  T
0.45445700000000  0.66118600000000  0.97950600000000  T  T  T
0.51989700000000  0.63982400000000  0.98028300000000  T  T  T
0.39628100000000  0.66441900000000  0.98997700000000  T  T  T
0.26784000000000  0.61801300000000  0.00609200000000  T  T  T
0.33432700000000  0.65242000000000  0.01362900000000  T  T  T
0.32235000000000  0.64809000000000  0.02941900000000  T  T  T
0.26170500000000  0.61331500000000  0.03420600000000  T  T  T
0.26222900000000  0.61372900000000  0.04846300000000  T  T  T
0.32517100000000  0.64917400000000  0.05277400000000  T  T  T
0.35041300000000  0.65715400000000  0.06774000000000  T  T  T
0.24619800000000  0.59985200000000  0.07985000000000  T  T  T
0.30168000000000  0.63884900000000  0.07958100000000  T  T  T
0.35007200000000  0.65706600000000  0.09039500000000  T  T  T
0.33713100000000  0.65333200000000  0.10530600000000  T  T  T
0.27239900000000  0.62130000000000  0.11154200000000  T  T  T
0.27215900000000  0.62113100000000  0.12631700000000  T  T  T
0.33483000000000  0.65258600000000  0.13309500000000  T  T  T
0.33337700000000  0.65210300000000  0.14741100000000  T  T  T
0.26301000000000  0.61434200000000  0.15447000000000  T  T  T
0.26239800000000  0.61386200000000  0.16855500000000  T  T  T
0.33116100000000  0.65134400000000  0.17561800000000  T  T  T
0.32302100000000  0.64835100000000  0.18955800000000  T  T  T
0.26127900000000  0.61297700000000  0.19490200000000  T  T  T
0.26438400000000  0.61540700000000  0.20721200000000  T  T  T
0.32559900000000  0.64933500000000  0.21171300000000  T  T  T
0.33527300000000  0.65273200000000  0.22665700000000  T  T  T
0.25848300000000  0.61071400000000  0.23299100000000  T  T  T
0.22408400000000  0.57553100000000  0.24693800000000  T  T  T
0.34794600000000  0.65650500000000  0.25743700000000  T  T  T
0.37143400000000  0.66158900000000  0.26700200000000  T  T  T
0.30545500000000  0.64071400000000  0.27338400000000  T  T  T
0.28985300000000  0.63244900000000  0.28654400000000  T  T  T
0.35255300000000  0.65769400000000  0.29491400000000  T  T  T
0.34318300000000  0.65517500000000  0.30856100000000  T  T  T
0.27441300000000  0.62270000000000  0.31431400000000  T  T  T
0.26928400000000  0.61907300000000  0.32837100000000  T  T  T
0.32873000000000  0.65048500000000  0.33538200000000  T  T  T
0.33631500000000  0.65307100000000  0.34862900000000  T  T  T
0.24250600000000  0.59626300000000  0.35912500000000  T  T  T
0.29288200000000  0.63417100000000  0.35890100000000  T  T  T
0.33727500000000  0.65337800000000  0.36812800000000  T  T  T
0.33491500000000  0.65261500000000  0.38070300000000  T  T  T
0.26322900000000  0.61451300000000  0.38850000000000  T  T  T
0.24383900000000  0.59757800000000  0.40257200000000  T  T  T
0.34373300000000  0.65533400000000  0.41161100000000  T  T  T
0.36509300000000  0.66045300000000  0.42151500000000  T  T  T
0.31868400000000  0.64661900000000  0.42985500000000  T  T  T
0.27501500000000  0.62311300000000  0.45055400000000  T  T  T
0.33833100000000  0.65371200000000  0.44062900000000  T  T  T
0.32993800000000  0.65091600000000  0.47085200000000  T  T  T
0.27837500000000  0.62536400000000  0.47912500000000  T  T  T
0.27939300000000  0.62603000000000  0.49117900000000  T  T  T
0.34859400000000  0.65667800000000  0.49623200000000  T  T  T
0.37410600000000  0.66201700000000  0.50835500000000  T  T  T
0.24215500000000  0.59591400000000  0.52383700000000  T  T  T
0.30508200000000  0.64053400000000  0.52765800000000  T  T  T
0.35577000000000  0.65846800000000  0.52108900000000  T  T  T
0.31497500000000  0.64506000000000  0.54201500000000  T  T  T
0.26046700000000  0.61232700000000  0.54963200000000  T  T  T
0.27477000000000  0.62294500000000  0.56230500000000  T  T  T
0.38925300000000  0.66387700000000  0.57417500000000  T  T  T
0.35499200000000  0.65828500000000  0.58719700000000  T  T  T
0.28057500000000  0.62679400000000  0.59252700000000  T  T  T
0.27758700000000  0.62484400000000  0.60620500000000  T  T  T
0.34214400000000  0.65487100000000  0.61313400000000  T  T  T
0.34145300000000  0.65466600000000  0.62615200000000  T  T  T
0.28230000000000  0.62789000000000  0.63166400000000  T  T  T
0.27460400000000  0.62283200000000  0.64369000000000  T  T  T
0.33635900000000  0.65308500000000  0.65240700000000  T  T  T
0.33345700000000  0.65212900000000  0.66591600000000  T  T  T
0.26957700000000  0.61928500000000  0.67292800000000  T  T  T
0.27405600000000  0.62245500000000  0.68629700000000  T  T  T
0.34231600000000  0.65492200000000  0.69244200000000  T  T  T
0.34683800000000  0.65620500000000  0.70482500000000  T  T  T
0.29211600000000  0.63374200000000  0.71243800000000  T  T  T
0.29828500000000  0.63710000000000  0.73469600000000  T  T  T
0.32447100000000  0.64890900000000  0.72501400000000  T  T  T
0.33495400000000  0.65262700000000  0.74622200000000  T  T  T
0.29777800000000  0.63683300000000  0.75430900000000  T  T  T
0.30136400000000  0.63868900000000  0.77492700000000  T  T  T
0.33292000000000  0.65194800000000  0.76580700000000  T  T  T
0.32818000000000  0.65028600000000  0.78789800000000  T  T  T
0.27692300000000  0.62440200000000  0.79508800000000  T  T  T
0.27708200000000  0.62450800000000  0.80812900000000  T  T  T
0.33841700000000  0.65373800000000  0.81448800000000  T  T  T
0.35092300000000  0.65728400000000  0.82841800000000  T  T  T
0.24243900000000  0.59619600000000  0.83915100000000  T  T  T
0.30395200000000  0.63998200000000  0.83908800000000  T  T  T
0.35669600000000  0.65868200000000  0.84964200000000  T  T  T
0.34977000000000  0.65698700000000  0.86264900000000  T  T  T
0.29047500000000  0.63280800000000  0.87012400000000  T  T  T
0.28870900000000  0.63178300000000  0.89456900000000  T  T  T
0.32348400000000  0.64853100000000  0.88402200000000  T  T  T
0.31776300000000  0.64623900000000  0.90904800000000  T  T  T
0.25495400000000  0.60775200000000  0.91560300000000  T  T  T
0.23211100000000  0.58520500000000  0.92824800000000  T  T  T
0.31985100000000  0.64709500000000  0.94473100000000  T  T  T
0.38387000000000  0.66332500000000  0.94193700000000  T  T  T
0.24149400000000  0.59525000000000  0.95354200000000  T  T  T
0.29592500000000  0.63584300000000  0.95712300000000  T  T  T
0.34037900000000  0.65434300000000  0.96883400000000  T  T  T
0.32485900000000  0.64905600000000  0.98395900000000  T  T  T
0.26498800000000  0.61587000000000  0.99067900000000  T  T  T
0.18735500000000  0.50513300000000  0.00663600000000  T  T  T
0.21769800000000  0.56695700000000  0.01299600000000  T  T  T
0.21711100000000  0.56612200000000  0.02728100000000  T  T  T
0.18654100000000  0.50237900000000  0.03386600000000  T  T  T
0.18646200000000  0.50210800000000  0.04758300000000  T  T  T
0.21711900000000  0.56613400000000  0.05495800000000  T  T  T
0.21199000000000  0.55848000000000  0.06906700000000  T  T  T
0.18538100000000  0.49819600000000  0.07386900000000  T  T  T
0.18590500000000  0.50012900000000  0.08660400000000  T  T  T
0.21414100000000  0.56177500000000  0.09097900000000  T  T  T
0.22136500000000  0.57198500000000  0.10527700000000  T  T  T
0.18922300000000  0.51098800000000  0.11260700000000  T  T  T
0.18915400000000  0.51078100000000  0.12613500000000  T  T  T
0.21992800000000  0.57005100000000  0.13302900000000  T  T  T
0.21600700000000  0.56453300000000  0.14705600000000  T  T  T
0.18324300000000  0.48940700000000  0.15195200000000  T  T  T
0.17852000000000  0.45318400000000  0.16425700000000  T  T  T
0.20928700000000  0.55414600000000  0.17774200000000  T  T  T
0.21480800000000  0.56277100000000  0.18958400000000  T  T  T
0.18779600000000  0.50657000000000  0.19814400000000  T  T  T
0.19095400000000  0.51594500000000  0.20918100000000  T  T  T
0.22077700000000  0.57119900000000  0.21406000000000  T  T  T
0.22090100000000  0.57136600000000  0.22588700000000  T  T  T
0.19119000000000  0.51659200000000  0.23231100000000  T  T  T
0.19298300000000  0.52130800000000  0.24345100000000  T  T  T
0.23318500000000  0.58642000000000  0.25925800000000  T  T  T
0.27599800000000  0.62378000000000  0.26249300000000  T  T  T
0.19231000000000  0.51957600000000  0.26923100000000  T  T  T
0.19271100000000  0.52061200000000  0.28449500000000  T  T  T
0.22851700000000  0.58101100000000  0.29208700000000  T  T  T
0.22441000000000  0.57594600000000  0.30677700000000  T  T  T
0.18932900000000  0.51130000000000  0.31306400000000  T  T  T
0.18794000000000  0.50702900000000  0.32701700000000  T  T  T
0.21758600000000  0.56679800000000  0.33437500000000  T  T  T
0.21070300000000  0.55644300000000  0.34855400000000  T  T  T
0.18490900000000  0.49639300000000  0.35335500000000  T  T  T
0.18602300000000  0.50055500000000  0.36612900000000  T  T  T
0.21236100000000  0.55905800000000  0.36984500000000  T  T  T
0.21974800000000  0.56980400000000  0.38264400000000  T  T  T
0.19091600000000  0.51584100000000  0.39053100000000  T  T  T
0.19752200000000  0.53197200000000  0.40236200000000  T  T  T
0.27386600000000  0.62232300000000  0.41122000000000  T  T  T
0.25771500000000  0.61008000000000  0.42463900000000  T  T  T
0.21260500000000  0.55943500000000  0.43150000000000  T  T  T
0.21536300000000  0.56359200000000  0.44429400000000  T  T  T
0.27953100000000  0.62612000000000  0.46161400000000  T  T  T
0.23747300000000  0.59109600000000  0.47145300000000  T  T  T
0.19540900000000  0.52720700000000  0.47419500000000  T  T  T
0.19045700000000  0.51456100000000  0.48807600000000  T  T  T
0.22520000000000  0.57694500000000  0.49729500000000  T  T  T
0.21438100000000  0.56213500000000  0.51124300000000  T  T  T
0.18492400000000  0.49644900000000  0.51481300000000  T  T  T
0.18369300000000  0.49140500000000  0.52758900000000  T  T  T
0.20818600000000  0.55231300000000  0.53263600000000  T  T  T
0.21405300000000  0.56164200000000  0.54518600000000  T  T  T
0.18706700000000  0.50417300000000  0.55312500000000  T  T  T
0.18976700000000  0.51258800000000  0.56660600000000  T  T  T
0.22566900000000  0.57753100000000  0.57187100000000  T  T  T
0.22889900000000  0.58146700000000  0.58564300000000  T  T  T
0.19117600000000  0.51655300000000  0.59316500000000  T  T  T
0.19150100000000  0.51743500000000  0.60692300000000  T  T  T
0.22602200000000  0.57797000000000  0.61294400000000  T  T  T
0.22951500000000  0.58219800000000  0.62536100000000  T  T  T
0.20055500000000  0.53831700000000  0.63306900000000  T  T  T
0.20065100000000  0.53851000000000  0.65445000000000  T  T  T
0.21860800000000  0.56823200000000  0.64541000000000  T  T  T
0.21393200000000  0.56146000000000  0.66731300000000  T  T  T
0.18825800000000  0.50803600000000  0.67440400000000  T  T  T
0.18920800000000  0.51094200000000  0.68757400000000  T  T  T
0.22414600000000  0.57561100000000  0.69376800000000  T  T  T
0.22962400000000  0.58232500000000  0.70771200000000  T  T  T
0.19487200000000  0.52594400000000  0.71548400000000  T  T  T
0.19710300000000  0.53105100000000  0.73047100000000  T  T  T
0.23692600000000  0.59051400000000  0.73790100000000  T  T  T
0.24049800000000  0.59424100000000  0.75138800000000  T  T  T
0.18227900000000  0.48479100000000  0.75433200000000  T  T  T
0.21050800000000  0.55613100000000  0.75934400000000  T  T  T
0.23781100000000  0.59145300000000  0.77481700000000  T  T  T
0.22781800000000  0.58017000000000  0.78955500000000  T  T  T
0.18037200000000  0.47349800000000  0.79764900000000  T  T  T