ATOMIC_SPECIES
C 12.011 C_ONCV_PBE-1.0.upf

NUMERICAL_ORBITAL
C_gga_8au_60Ry_2s2p1d.orb

LATTICE_CONSTANT
1

LATTICE_VECTORS
32.1253418058417  0.00000000000000  0.000000000000000
0.00000000000000  34.0150677944206  0.000000000000000
0.00000000000000  0.00000000000000  204.0243891891127

ATOMIC_POSITIONS
Direct

C
0
1000
0.6350430000  0.5087490000  0.0066630000  1  1  1
0.6451930000  0.4448640000  0.0132710000  1  1  1
0.6451910000  0.4453420000  0.0266900000  1  1  1
0.6347420000  0.5096720000  0.0333630000  1  1  1
0.6352310000  0.5081620000  0.0472460000  1  1  1
0.6451530000  0.4403450000  0.0535570000  1  1  1
0.6450750000  0.4374350000  0.0671220000  1  1  1
0.6358310000  0.5062540000  0.0749480000  1  1  1
0.6389650000  0.4950310000  0.0890660000  1  1  1
0.6445810000  0.4284930000  0.0938820000  1  1  1
0.6448580000  0.4326410000  0.1069740000  1  1  1
0.6372570000  0.5014410000  0.1108210000  1  1  1
0.6317030000  0.5183060000  0.1250380000  1  1  1
0.6444650000  0.4618400000  0.1323040000  1  1  1
0.6443760000  0.4628760000  0.1449390000  1  1  1
0.6302720000  0.5220010000  0.1517320000  1  1  1
0.6322090000  0.5169460000  0.1647130000  1  1  1
0.6451230000  0.4498680000  0.1697700000  1  1  1
0.6450280000  0.4361560000  0.1815450000  1  1  1
0.6373290000  0.5011880000  0.1907200000  1  1  1
0.6384590000  0.4970160000  0.2040540000  1  1  1
0.6449320000  0.4340170000  0.2103760000  1  1  1
0.6448620000  0.4327110000  0.2232230000  1  1  1
0.6373790000  0.5010080000  0.2303750000  1  1  1
0.6332410000  0.5140850000  0.2436590000  1  1  1
0.6449820000  0.4538160000  0.2538200000  1  1  1
0.6433550000  0.4720550000  0.2680380000  1  1  1
0.6230910000  0.5380830000  0.2734630000  1  1  1
0.6269750000  0.5298290000  0.2867520000  1  1  1
0.6444420000  0.4621190000  0.2906390000  1  1  1
0.6451930000  0.4447150000  0.3052050000  1  1  1
0.6336140000  0.5130180000  0.3122170000  1  1  1
0.6272050000  0.5293090000  0.3245220000  1  1  1
0.6449200000  0.4337740000  0.3389690000  1  1  1
0.6451370000  0.4396120000  0.3505860000  1  1  1
0.6351720000  0.5083460000  0.3547460000  1  1  1
0.6301830000  0.5222230000  0.3670560000  1  1  1
0.6450370000  0.4525050000  0.3748520000  1  1  1
0.6449720000  0.4540380000  0.3876380000  1  1  1
0.6287690000  0.5256770000  0.3943440000  1  1  1
0.6268980000  0.5300010000  0.4084740000  1  1  1
0.6443600000  0.4630600000  0.4153410000  1  1  1
0.6446120000  0.4599960000  0.4289240000  1  1  1
0.6263920000  0.5311270000  0.4386600000  1  1  1
0.6308540000  0.5205210000  0.4497840000  1  1  1
0.6451700000  0.4475270000  0.4550350000  1  1  1
0.6451930000  0.4446120000  0.4672770000  1  1  1
0.6335330000  0.5132510000  0.4741110000  1  1  1
0.6329960000  0.5147770000  0.4855900000  1  1  1
0.6447150000  0.4585430000  0.4928660000  1  1  1
0.6403950000  0.4889120000  0.5057230000  1  1  1
0.6450910000  0.4509690000  0.5161980000  1  1  1
0.6424870000  0.4779180000  0.5298030000  1  1  1
0.6414070000  0.4048970000  0.5369050000  1  1  1
0.6444820000  0.4272520000  0.5582810000  1  1  1
0.6345910000  0.5101300000  0.5590160000  1  1  1
0.6296600000  0.5235200000  0.5716360000  1  1  1
0.6450610000  0.4518550000  0.5783270000  1  1  1
0.6449290000  0.4339560000  0.5910080000  1  1  1
0.6191720000  0.5455980000  0.6009840000  1  1  1
0.6424060000  0.4784100000  0.6010130000  1  1  1
0.6445910000  0.4286190000  0.6119510000  1  1  1
0.6451890000  0.4430580000  0.6258300000  1  1  1
0.6338960000  0.5121990000  0.6318880000  1  1  1
0.6337840000  0.5125260000  0.6462510000  1  1  1
0.6451930000  0.4447550000  0.6531190000  1  1  1
0.6451920000  0.4450150000  0.6666500000  1  1  1
0.6337120000  0.5127350000  0.6733190000  1  1  1
0.6337770000  0.5125470000  0.6867880000  1  1  1
0.6451930000  0.4447460000  0.6932790000  1  1  1
0.6451890000  0.4430560000  0.7064550000  1  1  1
0.6365650000  0.5038300000  0.7272840000  1  1  1
0.6348770000  0.5092580000  0.7135320000  1  1  1
0.6439560000  0.4217750000  0.7325710000  1  1  1
0.6446590000  0.4295340000  0.7557980000  1  1  1
0.6338240000  0.5124080000  0.7567260000  1  1  1
0.6283660000  0.5266320000  0.7680140000  1  1  1
0.6431120000  0.4738180000  0.7758560000  1  1  1
0.6362890000  0.5047550000  0.7878100000  1  1  1
0.6424600000  0.4780790000  0.7975100000  1  1  1
0.6374560000  0.5007340000  0.8083440000  1  1  1
0.6450560000  0.4519960000  0.8130150000  1  1  1
0.6428340000  0.4757070000  0.8238860000  1  1  1
0.6451410000  0.4491070000  0.8341660000  1  1  1
0.6404030000  0.4888770000  0.8466840000  1  1  1
0.6449990000  0.4354480000  0.8553740000  1  1  1
0.6451410000  0.4491100000  0.8684150000  1  1  1
0.6281330000  0.5271780000  0.8724880000  1  1  1
0.6112940000  0.5588630000  0.8848910000  1  1  1
0.6451780000  0.4469190000  0.8971020000  1  1  1
0.6450060000  0.4356210000  0.9092030000  1  1  1
0.6380990000  0.4983810000  0.9155370000  1  1  1
0.6378870000  0.4991710000  0.9281980000  1  1  1
0.6442080000  0.4242140000  0.9353810000  1  1  1
0.6442450000  0.4245890000  0.9489570000  1  1  1
0.6388630000  0.4954370000  0.9549630000  1  1  1
0.6386720000  0.4961890000  0.9679410000  1  1  1
0.6446450000  0.4293480000  0.9752980000  1  1  1
0.6449340000  0.4340520000  0.9881540000  1  1  1
0.6363070000  0.5046930000  0.9939550000  1  1  1
0.5505670000  0.6216950000  0.0059850000  1  1  1
0.6021040000  0.5720660000  0.0131850000  1  1  1
0.6028490000  0.5710690000  0.0269660000  1  1  1
0.5590300000  0.6154950000  0.0335960000  1  1  1
0.5594810000  0.6151480000  0.0472410000  1  1  1
0.6049180000  0.5682380000  0.0540080000  1  1  1
0.6036820000  0.5699400000  0.0685230000  1  1  1
0.5521070000  0.6206100000  0.0744710000  1  1  1
0.5394220000  0.6290160000  0.0890140000  1  1  1
0.5784190000  0.5988120000  0.0998410000  1  1  1
0.6200210000  0.5440300000  0.0999770000  1  1  1
0.5355640000  0.6313450000  0.1109830000  1  1  1
0.5453610000  0.6252290000  0.1251890000  1  1  1
0.5960030000  0.5798170000  0.1311350000  1  1  1
0.5962920000  0.5794660000  0.1457840000  1  1  1
0.5449340000  0.6255090000  0.1529460000  1  1  1
0.5485290000  0.6231030000  0.1667000000  1  1  1
0.6009860000  0.5735410000  0.1722820000  1  1  1
0.6055980000  0.5672850000  0.1854070000  1  1  1
0.5623200000  0.6129210000  0.1928180000  1  1  1
0.5649730000  0.6107740000  0.2053090000  1  1  1
0.6089190000  0.5624780000  0.2114060000  1  1  1
0.6101700000  0.5605920000  0.2241140000  1  1  1
0.5665580000  0.6094600000  0.2318670000  1  1  1
0.5542790000  0.6190480000  0.2559100000  1  1  1
0.5873620000  0.5897000000  0.2449280000  1  1  1
0.5782330000  0.5989910000  0.2687500000  1  1  1
0.5350800000  0.6316310000  0.2783020000  1  1  1
0.5494690000  0.6224580000  0.2900290000  1  1  1
0.5966560000  0.5790200000  0.2942760000  1  1  1
0.6018230000  0.5724390000  0.3062950000  1  1  1
0.5569380000  0.6170830000  0.3151200000  1  1  1
0.5844310000  0.5928010000  0.3266840000  1  1  1
0.6378110000  0.4994510000  0.3345230000  1  1  1
0.6194830000  0.5450270000  0.3443400000  1  1  1
0.5762380000  0.6008840000  0.3408260000  1  1  1
0.5313340000  0.6337860000  0.3649860000  1  1  1
0.5898960000  0.5869220000  0.3728800000  1  1  1
0.5888450000  0.5880850000  0.3872000000  1  1  1
0.5320850000  0.6333610000  0.3952300000  1  1  1
0.5329220000  0.6328840000  0.4069250000  1  1  1
0.5780000000  0.5992140000  0.4141860000  1  1  1
0.5552970000  0.6183030000  0.4267400000  1  1  1
0.5769570000  0.6002070000  0.4357660000  1  1  1
0.5175740000  0.6409550000  0.4465190000  1  1  1
0.5977230000  0.5777030000  0.4584260000  1  1  1
0.6025730000  0.5714390000  0.4685960000  1  1  1
0.5529320000  0.6200210000  0.4751790000  1  1  1
0.5522960000  0.6204760000  0.4865460000  1  1  1
0.6012810000  0.5731540000  0.4920800000  1  1  1
0.6083440000  0.5633290000  0.5040950000  1  1  1
0.5658710000  0.6100320000  0.5122220000  1  1  1
0.5656900000  0.6101820000  0.5265910000  1  1  1
0.6128400000  0.5564220000  0.5351420000  1  1  1
0.6053120000  0.5676870000  0.5490350000  1  1  1
0.5429760000  0.6267800000  0.5545590000  1  1  1
0.5382280000  0.6297480000  0.5685950000  1  1  1
0.5949910000  0.5810360000  0.5766820000  1  1  1
0.5879970000  0.5890120000  0.5900780000  1  1  1
0.5377530000  0.6300360000  0.5945370000  1  1  1
0.5387310000  0.6294410000  0.6070330000  1  1  1
0.5913000000  0.5853400000  0.6114560000  1  1  1
0.5997960000  0.5750820000  0.6254680000  1  1  1
0.5488410000  0.6228890000  0.6330210000  1  1  1
0.5503460000  0.6218490000  0.6465220000  1  1  1
0.6006950000  0.5739200000  0.6530670000  1  1  1
0.6006000000  0.5740440000  0.6666270000  1  1  1
0.5485210000  0.6231080000  0.6732810000  1  1  1
0.5489100000  0.6228420000  0.6866220000  1  1  1
0.6013210000  0.5731020000  0.6934240000  1  1  1
0.6017670000  0.5725130000  0.7069690000  1  1  1
0.5525060000  0.6203260000  0.7133160000  1  1  1
0.5509310000  0.6214410000  0.7265360000  1  1  1
0.6059010000  0.5668580000  0.7342520000  1  1  1
0.6031750000  0.5706290000  0.7473760000  1  1  1
0.5472040000  0.6240000000  0.7529610000  1  1  1
0.5432220000  0.6266220000  0.7663740000  1  1  1
0.5936840000  0.5825860000  0.7731110000  1  1  1
0.5980170000  0.5773360000  0.7854130000  1  1  1
0.5456630000  0.6250290000  0.7935260000  1  1  1
0.5389900000  0.6292820000  0.8082190000  1  1  1
0.5824950000  0.5947860000  0.8186350000  1  1  1
0.6213010000  0.5416040000  0.8173360000  1  1  1
0.5468020000  0.6242710000  0.8298210000  1  1  1
0.5578620000  0.6163860000  0.8436720000  1  1  1
0.6070850000  0.5651670000  0.8509460000  1  1  1
0.6002390000  0.5745120000  0.8642070000  1  1  1
0.5481830000  0.6233390000  0.8699250000  1  1  1
0.5527790000  0.6201310000  0.8824180000  1  1  1
0.6275190000  0.5285940000  0.8952040000  1  1  1
0.6133220000  0.5556460000  0.9076250000  1  1  1
0.5590690000  0.6154650000  0.9130990000  1  1  1
0.5592080000  0.6153580000  0.9273590000  1  1  1
0.6095820000  0.5614840000  0.9344380000  1  1  1
0.6095600000  0.5615170000  0.9479040000  1  1  1
0.5621360000  0.6130670000  0.9548010000  1  1  1
0.5681930000  0.6080790000  0.9692770000  1  1  1
0.6121060000  0.5575900000  0.9742680000  1  1  1
0.6101660000  0.5605980000  0.9868750000  1  1  1
0.5611780000  0.6138260000  0.9913570000  1  1  1
0.4074010000  0.6648660000  0.0065370000  1  1  1
0.4838630000  0.6541250000  0.0130870000  1  1  1
0.4969460000  0.6497020000  0.0289450000  1  1  1
0.3755090000  0.6622290000  0.0406710000  1  1  1
0.4460650000  0.6625120000  0.0403980000  1  1  1
0.5003320000  0.6484200000  0.0517370000  1  1  1
0.4889150000  0.6525150000  0.0662010000  1  1  1
0.4216420000  0.6647070000  0.0722060000  1  1  1
0.4178700000  0.6648290000  0.0862480000  1  1  1
0.4757940000  0.6564490000  0.0931770000  1  1  1
0.4727370000  0.6572510000  0.1063320000  1  1  1
0.4065460000  0.6648500000  0.1125780000  1  1  1
0.4064030000  0.6648460000  0.1264010000  1  1  1
0.4797500000  0.6553470000  0.1328790000  1  1  1
0.4816120000  0.6548040000  0.1469450000  1  1  1
0.4063890000  0.6648460000  0.1542000000  1  1  1
0.4072880000  0.6648640000  0.1685590000  1  1  1
0.4847670000  0.6538460000  0.1746540000  1  1  1
0.4989440000  0.6489520000  0.1886810000  1  1  1
0.3770190000  0.6624490000  0.2003490000  1  1  1
0.4487450000  0.6621210000  0.2000590000  1  1  1
0.5016550000  0.6479030000  0.2107310000  1  1  1
0.4927680000  0.6512050000  0.2255370000  1  1  1
0.4099720000  0.6648980000  0.2333180000  1  1  1
0.4104370000  0.6649010000  0.2474240000  1  1  1
0.4763300000  0.6563040000  0.2563320000  1  1  1
0.4376630000  0.6635440000  0.2684160000  1  1  1
0.4671820000  0.6586020000  0.2773590000  1  1  1
0.4338980000  0.6639110000  0.2902150000  1  1  1
0.4902690000  0.6520630000  0.2971470000  1  1  1
0.4909240000  0.6518410000  0.3105450000  1  1  1
0.4174940000  0.6648380000  0.3170340000  1  1  1
0.4025080000  0.6647310000  0.3308980000  1  1  1
0.4528930000  0.6614560000  0.3440240000  1  1  1
0.5264790000  0.6364470000  0.3482340000  1  1  1
0.4014440000  0.6646890000  0.3521000000  1  1  1
0.4043480000  0.6647930000  0.3635550000  1  1  1
0.4570540000  0.6607150000  0.3704250000  1  1  1
0.4191540000  0.6647940000  0.3833660000  1  1  1
0.4164470000  0.6648600000  0.4041710000  1  1  1
0.4490870000  0.6620680000  0.3924840000  1  1  1
0.4642370000  0.6592620000  0.4111510000  1  1  1
0.4401200000  0.6632720000  0.4216400000  1  1  1
0.4736590000  0.6570130000  0.4286980000  1  1  1
0.4474880000  0.6623080000  0.4397240000  1  1  1
0.5322180000  0.6332860000  0.4556500000  1  1  1
0.4979550000  0.6493260000  0.4676410000  1  1  1
0.4117490000  0.6649050000  0.4744310000  1  1  1
0.4180280000  0.6648250000  0.4874850000  1  1  1
0.4944150000  0.6506230000  0.4931510000  1  1  1
0.4993200000  0.6488090000  0.5058140000  1  1  1
0.4463110000  0.6624770000  0.5114970000  1  1  1
0.4352510000  0.6637860000  0.5230000000  1  1  1
0.4911300000  0.6517710000  0.5321970000  1  1  1
0.4757040000  0.6564730000  0.5455520000  1  1  1
0.3853620000  0.6634900000  0.5501880000  1  1  1
0.3518170000  0.6575110000  0.5636310000  1  1  1
0.4724020000  0.6573360000  0.5763840000  1  1  1
0.4799440000  0.6552910000  0.5886720000  1  1  1
0.4135830000  0.6648980000  0.5945950000  1  1  1
0.4103030000  0.6649000000  0.6071230000  1  1  1
0.4800420000  0.6552630000  0.6136120000  1  1  1
0.4824680000  0.6545490000  0.6266450000  1  1  1
0.4131660000  0.6649010000  0.6330790000  1  1  1
0.4115200000  0.6649050000  0.6463950000  1  1  1
0.4838170000  0.6541390000  0.6533360000  1  1  1
0.4826140000  0.6545050000  0.6664390000  1  1  1
0.4096380000  0.6648960000  0.6729710000  1  1  1
0.4105840000  0.6649020000  0.6858980000  1  1  1
0.4864620000  0.6533120000  0.6929560000  1  1  1
0.4861970000  0.6533960000  0.7059200000  1  1  1
0.4186920000  0.6648080000  0.7114350000  1  1  1
0.4083820000  0.6648810000  0.7230410000  1  1  1
0.4822960000  0.6546000000  0.7323330000  1  1  1
0.4785830000  0.6556800000  0.7450220000  1  1  1
0.4139190000  0.6648950000  0.7507320000  1  1  1
0.4086460000  0.6648850000  0.7635890000  1  1  1
0.4780270000  0.6558360000  0.7721350000  1  1  1
0.4754410000  0.6565430000  0.7862240000  1  1  1
0.4045410000  0.6647990000  0.7931770000  1  1  1
0.4084040000  0.6648820000  0.8071300000  1  1  1
0.4763410000  0.6563010000  0.8132660000  1  1  1
0.4812100000  0.6549230000  0.8257900000  1  1  1
0.4230910000  0.6646450000  0.8326130000  1  1  1
0.4267460000  0.6644500000  0.8446390000  1  1  1
0.4930650000  0.6511010000  0.8509310000  1  1  1
0.4911490000  0.6517640000  0.8637270000  1  1  1
0.4197720000  0.6647750000  0.8696720000  1  1  1
0.4085280000  0.6648830000  0.8821230000  1  1  1
0.4832220000  0.6543210000  0.8909010000  1  1  1
0.4849990000  0.6537740000  0.9056060000  1  1  1
0.4067500000  0.6648540000  0.9146140000  1  1  1
0.4294890000  0.6642680000  0.9298860000  1  1  1
0.5034920000  0.6471700000  0.9341310000  1  1  1
0.5050460000  0.6465370000  0.9483060000  1  1  1
0.4397710000  0.6633120000  0.9525350000  1  1  1
0.4101770000  0.6649000000  0.9670360000  1  1  1
0.4544570000  0.6611860000  0.9795060000  1  1  1
0.5198970000  0.6398240000  0.9802830000  1  1  1
0.3962810000  0.6644190000  0.9899770000  1  1  1
0.2678400000  0.6180130000  0.0060920000  1  1  1
0.3343270000  0.6524200000  0.0136290000  1  1  1
0.3223500000  0.6480900000  0.0294190000  1  1  1
0.2617050000  0.6133150000  0.0342060000  1  1  1
0.2622290000  0.6137290000  0.0484630000  1  1  1
0.3251710000  0.6491740000  0.0527740000  1  1  1
0.3504130000  0.6571540000  0.0677400000  1  1  1
0.2461980000  0.5998520000  0.0798500000  1  1  1
0.3016800000  0.6388490000  0.0795810000  1  1  1
0.3500720000  0.6570660000  0.0903950000  1  1  1
0.3371310000  0.6533320000  0.1053060000  1  1  1
0.2723990000  0.6213000000  0.1115420000  1  1  1
0.2721590000  0.6211310000  0.1263170000  1  1  1
0.3348300000  0.6525860000  0.1330950000  1  1  1
0.3333770000  0.6521030000  0.1474110000  1  1  1
0.2630100000  0.6143420000  0.1544700000  1  1  1
0.2623980000  0.6138620000  0.1685550000  1  1  1
0.3311610000  0.6513440000  0.1756180000  1  1  1
0.3230210000  0.6483510000  0.1895580000  1  1  1
0.2612790000  0.6129770000  0.1949020000  1  1  1
0.2643840000  0.6154070000  0.2072120000  1  1  1
0.3255990000  0.6493350000  0.2117130000  1  1  1
0.3352730000  0.6527320000  0.2266570000  1  1  1
0.2584830000  0.6107140000  0.2329910000  1  1  1
0.2240840000  0.5755310000  0.2469380000  1  1  1
0.3479460000  0.6565050000  0.2574370000  1  1  1
0.3714340000  0.6615890000  0.2670020000  1  1  1
0.3054550000  0.6407140000  0.2733840000  1  1  1
0.2898530000  0.6324490000  0.2865440000  1  1  1
0.3525530000  0.6576940000  0.2949140000  1  1  1
0.3431830000  0.6551750000  0.3085610000  1  1  1
0.2744130000  0.6227000000  0.3143140000  1  1  1
0.2692840000  0.6190730000  0.3283710000  1  1  1
0.3287300000  0.6504850000  0.3353820000  1  1  1
0.3363150000  0.6530710000  0.3486290000  1  1  1
0.2425060000  0.5962630000  0.3591250000  1  1  1
0.2928820000  0.6341710000  0.3589010000  1  1  1
0.3372750000  0.6533780000  0.3681280000  1  1  1
0.3349150000  0.6526150000  0.3807030000  1  1  1
0.2632290000  0.6145130000  0.3885000000  1  1  1
0.2438390000  0.5975780000  0.4025720000  1  1  1
0.3437330000  0.6553340000  0.4116110000  1  1  1
0.3650930000  0.6604530000  0.4215150000  1  1  1
0.3186840000  0.6466190000  0.4298550000  1  1  1
0.2750150000  0.6231130000  0.4505540000  1  1  1
0.3383310000  0.6537120000  0.4406290000  1  1  1
0.3299380000  0.6509160000  0.4708520000  1  1  1
0.2783750000  0.6253640000  0.4791250000  1  1  1
0.2793930000  0.6260300000  0.4911790000  1  1  1
0.3485940000  0.6566780000  0.4962320000  1  1  1
0.3741060000  0.6620170000  0.5083550000  1  1  1
0.2421550000  0.5959140000  0.5238370000  1  1  1
0.3050820000  0.6405340000  0.5276580000  1  1  1
0.3557700000  0.6584680000  0.5210890000  1  1  1
0.3149750000  0.6450600000  0.5420150000  1  1  1
0.2604670000  0.6123270000  0.5496320000  1  1  1
0.2747700000  0.6229450000  0.5623050000  1  1  1
0.3892530000  0.6638770000  0.5741750000  1  1  1
0.3549920000  0.6582850000  0.5871970000  1  1  1
0.2805750000  0.6267940000  0.5925270000  1  1  1
0.2775870000  0.6248440000  0.6062050000  1  1  1
0.3421440000  0.6548710000  0.6131340000  1  1  1
0.3414530000  0.6546660000  0.6261520000  1  1  1
0.2823000000  0.6278900000  0.6316640000  1  1  1
0.2746040000  0.6228320000  0.6436900000  1  1  1
0.3363590000  0.6530850000  0.6524070000  1  1  1
0.3334570000  0.6521290000  0.6659160000  1  1  1
0.2695770000  0.6192850000  0.6729280000  1  1  1
0.2740560000  0.6224550000  0.6862970000  1  1  1
0.3423160000  0.6549220000  0.6924420000  1  1  1
0.3468380000  0.6562050000  0.7048250000  1  1  1
0.2921160000  0.6337420000  0.7124380000  1  1  1
0.2982850000  0.6371000000  0.7346960000  1  1  1
0.3244710000  0.6489090000  0.7250140000  1  1  1
0.3349540000  0.6526270000  0.7462220000  1  1  1
0.2977780000  0.6368330000  0.7543090000  1  1  1
0.3013640000  0.6386890000  0.7749270000  1  1  1
0.3329200000  0.6519480000  0.7658070000  1  1  1
0.3281800000  0.6502860000  0.7878980000  1  1  1
0.2769230000  0.6244020000  0.7950880000  1  1  1
0.2770820000  0.6245080000  0.8081290000  1  1  1
0.3384170000  0.6537380000  0.8144880000  1  1  1
0.3509230000  0.6572840000  0.8284180000  1  1  1
0.2424390000  0.5961960000  0.8391510000  1  1  1
0.3039520000  0.6399820000  0.8390880000  1  1  1
0.3566960000  0.6586820000  0.8496420000  1  1  1
0.3497700000  0.6569870000  0.8626490000  1  1  1
0.2904750000  0.6328080000  0.8701240000  1  1  1
0.2887090000  0.6317830000  0.8945690000  1  1  1
0.3234840000  0.6485310000  0.8840220000  1  1  1
0.3177630000  0.6462390000  0.9090480000  1  1  1
0.2549540000  0.6077520000  0.9156030000  1  1  1
0.2321110000  0.5852050000  0.9282480000  1  1  1
0.3198510000  0.6470950000  0.9447310000  1  1  1
0.3838700000  0.6633250000  0.9419370000  1  1  1
0.2414940000  0.5952500000  0.9535420000  1  1  1
0.2959250000  0.6358430000  0.9571230000  1  1  1
0.3403790000  0.6543430000  0.9688340000  1  1  1
0.3248590000  0.6490560000  0.9839590000  1  1  1
0.2649880000  0.6158700000  0.9906790000  1  1  1
0.1873550000  0.5051330000  0.0066360000  1  1  1
0.2176980000  0.5669570000  0.0129960000  1  1  1
0.2171110000  0.5661220000  0.0272810000  1  1  1
0.1865410000  0.5023790000  0.0338660000  1  1  1
0.1864620000  0.5021080000  0.0475830000  1  1  1
0.2171190000  0.5661340000  0.0549580000  1  1  1
0.2119900000  0.5584800000  0.0690670000  1  1  1
0.1853810000  0.4981960000  0.0738690000  1  1  1
0.1859050000  0.5001290000  0.0866040000  1  1  1
0.2141410000  0.5617750000  0.0909790000  1  1  1
0.2213650000  0.5719850000  0.1052770000  1  1  1
0.1892230000  0.5109880000  0.1126070000  1  1  1
0.1891540000  0.5107810000  0.1261350000  1  1  1
0.2199280000  0.5700510000  0.1330290000  1  1  1
0.2160070000  0.5645330000  0.1470560000  1  1  1
0.1832430000  0.4894070000  0.1519520000  1  1  1
0.1785200000  0.4531840000  0.1642570000  1  1  1
0.2092870000  0.5541460000  0.1777420000  1  1  1
0.2148080000  0.5627710000  0.1895840000  1  1  1
0.1877960000  0.5065700000  0.1981440000  1  1  1
0.1909540000  0.5159450000  0.2091810000  1  1  1
0.2207770000  0.5711990000  0.2140600000  1  1  1
0.2209010000  0.5713660000  0.2258870000  1  1  1
0.1911900000  0.5165920000  0.2323110000  1  1  1
0.1929830000  0.5213080000  0.2434510000  1  1  1
0.2331850000  0.5864200000  0.2592580000  1  1  1
0.2759980000  0.6237800000  0.2624930000  1  1  1
0.1923100000  0.5195760000  0.2692310000  1  1  1
0.1927110000  0.5206120000  0.2844950000  1  1  1
0.2285170000  0.5810110000  0.2920870000  1  1  1
0.2244100000  0.5759460000  0.3067770000  1  1  1
0.1893290000  0.5113000000  0.3130640000  1  1  1
0.1879400000  0.5070290000  0.3270170000  1  1  1
0.2175860000  0.5667980000  0.3343750000  1  1  1
0.2107030000  0.5564430000  0.3485540000  1  1  1
0.1849090000  0.4963930000  0.3533550000  1  1  1
0.1860230000  0.5005550000  0.3661290000  1  1  1
0.2123610000  0.5590580000  0.3698450000  1  1  1
0.2197480000  0.5698040000  0.3826440000  1  1  1
0.1909160000  0.5158410000  0.3905310000  1  1  1
0.1975220000  0.5319720000  0.4023620000  1  1  1
0.2738660000  0.6223230000  0.4112200000  1  1  1
0.2577150000  0.6100800000  0.4246390000  1  1  1
0.2126050000  0.5594350000  0.4315000000  1  1  1
0.2153630000  0.5635920000  0.4442940000  1  1  1
0.2795310000  0.6261200000  0.4616140000  1  1  1
0.2374730000  0.5910960000  0.4714530000  1  1  1
0.1954090000  0.5272070000  0.4741950000  1  1  1
0.1904570000  0.5145610000  0.4880760000  1  1  1
0.2252000000  0.5769450000  0.4972950000  1  1  1
0.2143810000  0.5621350000  0.5112430000  1  1  1
0.1849240000  0.4964490000  0.5148130000  1  1  1
0.1836930000  0.4914050000  0.5275890000  1  1  1
0.2081860000  0.5523130000  0.5326360000  1  1  1
0.2140530000  0.5616420000  0.5451860000  1  1  1
0.1870670000  0.5041730000  0.5531250000  1  1  1
0.1897670000  0.5125880000  0.5666060000  1  1  1
0.2256690000  0.5775310000  0.5718710000  1  1  1
0.2288990000  0.5814670000  0.5856430000  1  1  1
0.1911760000  0.5165530000  0.5931650000  1  1  1
0.1915010000  0.5174350000  0.6069230000  1  1  1
0.2260220000  0.5779700000  0.6129440000  1  1  1
0.2295150000  0.5821980000  0.6253610000  1  1  1
0.2005550000  0.5383170000  0.6330690000  1  1  1
0.2006510000  0.5385100000  0.6544500000  1  1  1
0.2186080000  0.5682320000  0.6454100000  1  1  1
0.2139320000  0.5614600000  0.6673130000  1  1  1
0.1882580000  0.5080360000  0.6744040000  1  1  1
0.1892080000  0.5109420000  0.6875740000  1  1  1
0.2241460000  0.5756110000  0.6937680000  1  1  1
0.2296240000  0.5823250000  0.7077120000  1  1  1
0.1948720000  0.5259440000  0.7154840000  1  1  1
0.1971030000  0.5310510000  0.7304710000  1  1  1
0.2369260000  0.5905140000  0.7379010000  1  1  1
0.2404980000  0.5942410000  0.7513880000  1  1  1
0.1822790000  0.4847910000  0.7543320000  1  1  1
0.2105080000  0.5561310000  0.7593440000  1  1  1
0.2378110000  0.5914530000  0.7748170000  1  1  1
0.2278180000  0.5801700000  0.7895550000  1  1  1
0.1803720000  0.4734980000  0.7976490000  1  1  1
0.1984850000  0.5340460000  0.7987380000  1  1  1
0.2235900000  0.5748980000  0.8121100000  1  1  1
0.2086090000  0.5530210000  0.8271310000  1  1  1
0.1820220000  0.4834660000  0.8325990000  1  1  1
0.1835260000  0.4906760000  0.8457150000  1  1  1
0.2120480000  0.5585700000  0.8500480000  1  1  1
0.2233690000  0.5746130000  0.8648840000  1  1  1
0.1892840000  0.5111670000  0.8728240000  1  1  1
0.1895740000  0.5120240000  0.8862360000  1  1  1
0.2253060000  0.5770780000  0.8957490000  1  1  1
0.2166130000  0.5654100000  0.9076800000  1  1  1
0.1879140000  0.5069470000  0.9124600000  1  1  1
0.1887330000  0.5095060000  0.9249080000  1  1  1
0.2595460000  0.6115830000  0.9403900000  1  1  1
0.2080280000  0.5520450000  0.9586760000  1  1  1
0.1812040000  0.4788950000  0.9556130000  1  1  1
0.1794130000  0.4655940000  0.9673610000  1  1  1
0.1978500000  0.5326840000  0.9710130000  1  1  1
0.2113900000  0.5575380000  0.9849760000  1  1  1
0.1862770000  0.5014570000  0.9929720000  1  1  1
0.1929120000  0.3677620000  0.0069520000  1  1  1
0.1785650000  0.4346810000  0.0137730000  1  1  1
0.1786440000  0.4331290000  0.0270910000  1  1  1
0.1976810000  0.3565700000  0.0344660000  1  1  1
0.1956060000  0.3612240000  0.0483270000  1  1  1
0.1786140000  0.4336940000  0.0543830000  1  1  1
0.1785080000  0.4359790000  0.0676830000  1  1  1
0.1916510000  0.3710530000  0.0746420000  1  1  1
0.1905220000  0.3741440000  0.0875930000  1  1  1
0.1783720000  0.4405960000  0.0933720000  1  1  1
0.1783380000  0.4437060000  0.1064160000  1  1  1
0.1896320000  0.3766950000  0.1133570000  1  1  1
0.1894500000  0.3772300000  0.1262810000  1  1  1
0.1783820000  0.4400910000  0.1325810000  1  1  1
0.1785270000  0.4355280000  0.1445270000  1  1  1
0.1925610000  0.3686600000  0.1509940000  1  1  1
0.1895330000  0.3769840000  0.1620320000  1  1  1
0.1807760000  0.4762340000  0.1742860000  1  1  1
0.1813720000  0.4090050000  0.1858110000  1  1  1
0.1786810000  0.4324660000  0.1960640000  1  1  1
0.1841670000  0.3954790000  0.2090120000  1  1  1
0.1784630000  0.4517160000  0.2161550000  1  1  1
0.1787990000  0.4583260000  0.2284900000  1  1  1
0.2032040000  0.3454300000  0.2389000000  1  1  1
0.1814760000  0.4084060000  0.2391470000  1  1  1
0.1787200000  0.4570750000  0.2492090000  1  1  1
0.1783800000  0.4487190000  0.2628550000  1  1  1
0.1899350000  0.3758150000  0.2702310000  1  1  1
0.1893710000  0.3774620000  0.2847940000  1  1  1
0.1783600000  0.4475800000  0.2915940000  1  1  1
0.1783390000  0.4455850000  0.3060950000  1  1  1
0.1905460000  0.3740790000  0.3127430000  1  1  1
0.1926750000  0.3683680000  0.3268560000  1  1  1
0.1787100000  0.4319750000  0.3338450000  1  1  1
0.1786590000  0.4328620000  0.3474810000  1  1  1
0.1921250000  0.3697970000  0.3564300000  1  1  1
0.1876600000  0.3827590000  0.3686960000  1  1  1
0.1783370000  0.4449110000  0.3733590000  1  1  1
0.1785430000  0.4537310000  0.3863550000  1  1  1
0.1838830000  0.3966710000  0.3933420000  1  1  1
0.1833860000  0.3988380000  0.4067010000  1  1  1
0.1802010000  0.4722580000  0.4127070000  1  1  1
0.1831280000  0.4888850000  0.4268120000  1  1  1
0.1992780000  0.3531790000  0.4383960000  1  1  1
0.1786050000  0.4338630000  0.4386040000  1  1  1
0.1826870000  0.4868130000  0.4502080000  1  1  1
0.1794570000  0.4660260000  0.4649130000  1  1  1
0.1871070000  0.3845800000  0.4710200000  1  1  1
0.1885050000  0.3800830000  0.4857080000  1  1  1
0.1783360000  0.4445240000  0.4932350000  1  1  1
0.1784860000  0.4365360000  0.5072490000  1  1  1
0.1930530000  0.3674040000  0.5131280000  1  1  1
0.1954090000  0.3616840000  0.5273990000  1  1  1
0.1792050000  0.4254420000  0.5343010000  1  1  1
0.1787940000  0.4306500000  0.5477050000  1  1  1
0.1922880000  0.3693700000  0.5565510000  1  1  1
0.1882120000  0.3809980000  0.5684400000  1  1  1
0.1783790000  0.4486600000  0.5740620000  1  1  1
0.1784520000  0.4513840000  0.5869060000  1  1  1
0.1873580000  0.3837480000  0.5930780000  1  1  1
0.1907050000  0.3736330000  0.6056090000  1  1  1
0.1783450000  0.4463910000  0.6144700000  1  1  1
0.1790850000  0.4620910000  0.6297580000  1  1  1
0.2065140000  0.3394420000  0.6406150000  1  1  1
0.1806070000  0.4137710000  0.6406080000  1  1  1
0.1791300000  0.4626080000  0.6541280000  1  1  1
0.1783680000  0.4408070000  0.6669830000  1  1  1
0.1903100000  0.3747440000  0.6724600000  1  1  1
0.1901780000  0.3751190000  0.6870720000  1  1  1
0.1783550000  0.4472350000  0.6941060000  1  1  1
0.1784140000  0.4501440000  0.7085280000  1  1  1
0.1872460000  0.3841160000  0.7154770000  1  1  1
0.1863710000  0.3871000000  0.7296950000  1  1  1
0.1800150000  0.4708330000  0.7373540000  1  1  1
0.1785470000  0.4350690000  0.7600850000  1  1  1
0.1919700000  0.3702050000  0.7572670000  1  1  1
0.2007280000  0.3502250000  0.7676850000  1  1  1
0.1818140000  0.4065310000  0.7729890000  1  1  1
0.1803440000  0.4155900000  0.7861150000  1  1  1
0.1970550000  0.3579430000  0.7929200000  1  1  1
0.1918520000  0.3705160000  0.8020130000  1  1  1
0.1795250000  0.4222210000  0.8059650000  1  1  1
0.1851760000  0.3914680000  0.8171530000  1  1  1
0.1824150000  0.4034100000  0.8268900000  1  1  1
0.1936040000  0.3660220000  0.8466070000  1  1  1
0.1785000000  0.4361830000  0.8519270000  1  1  1
0.1786960000  0.4322060000  0.8637520000  1  1  1
0.2026170000  0.3465400000  0.8655170000  1  1  1
0.2191070000  0.3199640000  0.8852370000  1  1  1
0.1784060000  0.4498210000  0.8935490000  1  1  1
0.1784080000  0.4498930000  0.9049650000  1  1  1
0.1898070000  0.3761840000  0.9056870000  1  1  1
0.1935840000  0.3660720000  0.9260090000  1  1  1