ATOMIC_SPECIES
Al 26.981539 al.lda.lps

LATTICE_CONSTANT
7.50241114482312  // add lattice constant

LATTICE_VECTORS
0.707106781187    0.000000000000    0.000000000000    
0.353553390593    0.612372435696    0.000000000000    
0.000000000000    0.000000000000    12.701705922171765

ATOMIC_POSITIONS
Direct

Al
0.0
22
-9.9207647333E-31 -1.0587787070E-30  1.6161263247E-04 1 1 1
 3.3333333330E-01  3.3333333330E-01  4.5433390394E-02 1 1 1
 6.6666666670E-01  6.6666666670E-01  9.0920054523E-02 1 1 1
-9.7878137491E-31 -1.0454836086E-30  1.3611768151E-01 1 1 1
 3.3333333330E-01  3.3333333330E-01  1.8158962519E-01 1 1 1
-9.7840031012E-31 -1.0451025438E-30  2.2715104256E-01 1 1 1
 4.0000000000E-01  4.0000000000E-01  2.7306104997E-01 1 1 1
 7.3333333330E-01  7.3333333330E-01  3.1826888435E-01 1 1 1
 6.6666666700E-02  6.6666666700E-02  3.6373052909E-01 1 1 1
 4.0000000000E-01  4.0000000000E-01  4.0897406449E-01 1 1 1
 7.3333333330E-01  7.3333333330E-01  4.5454545455E-01 1 1 1
 4.0000000000E-01  4.0000000000E-01  5.0011684461E-01 1 1 1
 6.6666666700E-02  6.6666666700E-02  5.4536038001E-01 1 1 1
 7.3333333330E-01  7.3333333330E-01  5.9082202475E-01 1 1 1
 4.0000000000E-01  4.0000000000E-01  6.3602985913E-01 1 1 1
-9.7840031012E-31 -1.0451025438E-30  6.8193986654E-01 1 1 1
 3.3333333330E-01  3.3333333330E-01  7.2750128391E-01 1 1 1
-9.7878137491E-31 -1.0454836086E-30  7.7297322759E-01 1 1 1
 6.6666666670E-01  6.6666666670E-01  8.1817085458E-01 1 1 1
 3.3333333330E-01  3.3333333330E-01  8.6365751871E-01 1 1 1
-9.9207647333E-31 -1.0587787070E-30  9.0892929647E-01 1 1 1
 6.6666666670E-01  6.6666666670E-01  9.5454545455E-01 1 1 1
