%BLOCK LATTICE_CART
2.371269835284    -4.107159833168    0.000000000000    
2.371269835284    4.107159833168    0.000000000000    
0.000000000000    0.000000000000    7.797664138000    
%END BLOCK LATTICE_CART
%BLOCK POSITIONS_FRAC
In    0.666666666667    0.333333333333    0.500588140000
In    0.333333333333    0.666666666667    0.000588140000
As    0.666666666667    0.333333333333    0.874911860000
As    0.333333333333    0.666666666667    0.374911860000
%END BLOCK POSITIONS_FRAC
%BLOCK SPECIES_POT
In in.gga.recpot
As as.gga.recpot
%END BLOCK SPECIES_POT
