%BLOCK LATTICE_CART
   2.805799707700000   0.000000000000000   0.000000000000000
   1.402899853850000   2.429893824799152   0.000000000000000
   0.000000000000003   0.000000000000002  46.331100154800509
%END BLOCK LATTICE_CART
%BLOCK POSITIONS_FRAC
    Al   0.000000000000000   0.000000000000000   0.000293978034807
    Al   0.333333333300000   0.333333333300000   0.049982911982022
    Al   0.666666666700000   0.666666666700000   0.099635544165539
    Al   0.000000000000000   0.000000000000000   0.149286934437162
    Al   0.333333333300000   0.333333333300000   0.199570117181425
    Al   0.000000000000000   0.000000000000000   0.250415970505082
    Al   0.333333333300000   0.333333333300000   0.300624234218974
    Al   0.666666666700000   0.666666666700000   0.350218637181897
    Al   0.000000000000000   0.000000000000000   0.399814387612910
    Al   0.333333333300000   0.333333333300000   0.449999814497305
    Al   0.000000000000000   0.000000000000000   0.500185295990117
    Al   0.666666666700000   0.666666666700000   0.549781134235249
    Al   0.333333333300000   0.333333333300000   0.599375577093231
    Al   0.000000000000000   0.000000000000000   0.649583859366299
    Al   0.333333333300000   0.333333333300000   0.700429773246394
    Al   1.000000000000000   1.000000000000000   0.750713074207970
    Al   0.666666666700000   0.666666666700000   0.800364610623186
    Al   0.333333333300000   0.333333333300000   0.850017330209984
    Al   0.000000000000000   0.000000000000000   0.899706253658742
    Al   0.666666666700000   0.666666666700000   0.950000104916091
%END BLOCK POSITIONS_FRAC
%BLOCK SPECIES_POT
    Al al_HC.lda.recpot                                                                       
%END BLOCK SPECIES_POT
%BLOCK ION_OPTIMIZATION
           0           0           1
           0           0           1
           0           0           1
           0           0           1
           0           0           1
           0           0           1
           0           0           1
           0           0           1
           0           0           1
           0           0           1
           0           0           1
           0           0           1
           0           0           1
           0           0           1
           0           0           1
           0           0           1
           0           0           1
           0           0           1
           0           0           1
           0           0           1
%END BLOCK ION_OPTIMIZATION
