ATOMIC_SPECIES
Li 6.941 li.gga.psp.1 blps
Mg 24.305 mg.gga.psp blps

LATTICE_CONSTANT
1.8897259885789233  // add lattice constant

LATTICE_VECTORS
3.052390550000    0.000000000000    0.000000000000    
0.000000000000    5.025685280000    0.000000000000    
0.000000000000    0.000000000000    5.380484780000    

ATOMIC_POSITIONS
Direct

Li
0.0
2
    0.500000000000    0.750000000000    0.665621270000 1 1 1
    0.500000000000    0.250000000000    0.334378730000 1 1 1
Mg
0.0
2
    0.000000000000    0.750000000000    0.171270230000 1 1 1
    0.000000000000    0.250000000000    0.828729770000 1 1 1
