%BLOCK LATTICE_CART
0.000000000000    11.394150000000    0.000000000000    
3.088180000000    0.000000000000    0.000000000000    
0.000000000000    -2.446321000000    -4.763796000000    
%END BLOCK LATTICE_CART
%BLOCK POSITIONS_FRAC
Li    0.125181000000    0.500000000000    0.291595000000
Li    0.374819000000    0.000000000000    0.708405000000
Li    0.625181000000    0.000000000000    0.291595000000
Li    0.874819000000    0.500000000000    0.708405000000
Mg    0.376323000000    0.500000000000    0.206517000000
Mg    0.123677000000    0.000000000000    0.793483000000
Mg    0.876323000000    0.000000000000    0.206517000000
Mg    0.623677000000    0.500000000000    0.793483000000
%END BLOCK POSITIONS_FRAC
%BLOCK SPECIES_POT
Li li.gga.recpot
Mg mg.gga.recpot
%END BLOCK SPECIES_POT
