%BLOCK LATTICE_CART
3.135620842426    -5.431054612354    0.000000000000    
3.135620842426    5.431054612354    0.000000000000    
0.000000000000    0.000000000000    5.052189120000    
%END BLOCK LATTICE_CART
%BLOCK POSITIONS_FRAC
Mg    0.999607460000    0.499803730000    0.000000000000
Mg    0.500196270000    0.000392540000    0.000000000000
Mg    0.500196270000    0.499803730000    0.000000000000
Mg    0.164929390000    0.835070610000    0.500000000000
Mg    0.164929390000    0.329858780000    0.500000000000
Mg    0.670141220000    0.835070610000    0.500000000000
Mg    0.666666666667    0.333333333333    0.500000000000
Al    0.000000000000    0.000000000000    0.000000000000
%END BLOCK POSITIONS_FRAC
%BLOCK SPECIES_POT
Mg mg.gga.recpot
Al al.gga.recpot
%END BLOCK SPECIES_POT
