ATOMIC_SPECIES
Al 27 al.lda.lps

LATTICE_CONSTANT
7.50241114482

LATTICE_VECTORS
0.707106781187 0 0 #latvec1
0.353553390593 0.612372435696 0 #latvec2
0 0 11.5470053838 #latvec3

ATOMIC_POSITIONS
Direct

Al #label
0 #magnetism
20 #number of atoms
0 0 9.85806709505e-05 0 0 1 0 0 0
0.333333333332 0.333333333332 0.0498979717469 0 0 1 0 0 0
0.666666666668 0.666666666668 0.10007084636 0 0 1 0 0 0
0 0 0.149971723697 0 0 1 0 0 0
0.333333333332 0.333333333332 0.199585599062 0 0 1 0 0 0
0.9 0.9 0.250402560475 0 0 1 0 0 0
0.233333333334 0.233333333334 0.299969775467 0 0 1 0 0 0
0.566666666668 0.566666666668 0.350008090597 0 0 1 0 0 0
0.9 0.9 0.39988961905 0 0 1 0 0 0
0.233333333334 0.233333333334 0.449981304792 0 0 1 0 0 0
0.9 0.9 0.500081801523 0 0 1 0 0 0
0.566666666668 0.566666666668 0.54996725258 0 0 1 0 0 0
0.233333333334 0.233333333334 0.600016094814 0 0 1 0 0 0
0.9 0.9 0.649598440627 0 0 1 0 0 0
0.333333333332 0.333333333332 0.700420089195 0 0 1 0 0 0
0 0 0.75004323792 0 0 1 0 0 0
0.666666666668 0.666666666668 0.799947064352 0 0 1 0 0 0
0.333333333332 0.333333333332 0.850119842231 0 0 1 0 0 0
0 0 0.899921837603 0 0 1 0 0 0
0.666666666668 0.666666666668 0.950008267236 0 0 1 0 0 0
