ATOMIC_SPECIES
C 12 /home/mhchen_pkuhpc/mhchen_cls/lustre2/5_liurenxi/03a01_abacus-lcao-scan/pp/SG15_ONCV_v1.0_upf/C_ONCV_PBE-1.0.upf
H 1 /home/mhchen_pkuhpc/mhchen_cls/lustre2/5_liurenxi/03a01_abacus-lcao-scan/pp/SG15_ONCV_v1.0_upf/H_ONCV_PBE-1.0.upf
C_empty 12 /home/mhchen_pkuhpc/mhchen_cls/lustre2/5_liurenxi/03a01_abacus-lcao-scan/pp/SG15_ONCV_v1.0_upf/C_ONCV_PBE-1.0.upf
H_empty 1 /home/mhchen_pkuhpc/mhchen_cls/lustre2/5_liurenxi/03a01_abacus-lcao-scan/pp/SG15_ONCV_v1.0_upf/H_ONCV_PBE-1.0.upf

LATTICE_CONSTANT
1.8897161646321

LATTICE_VECTORS
20 0 0
0 20 0
0 0 20

NUMERICAL_ORBITAL
/home/mhchen_pkuhpc/mhchen_cls/lustre2/5_liurenxi/03a01_abacus-lcao-scan/orb/Orb_DZP_E100_Full/C/C_gga_10au_100Ry_2s2p1d.orb
/home/mhchen_pkuhpc/mhchen_cls/lustre2/5_liurenxi/03a01_abacus-lcao-scan/orb/Orb_DZP_E100_Full/H/H_gga_10au_100Ry_2s1p.orb
/home/mhchen_pkuhpc/mhchen_cls/lustre2/5_liurenxi/03a01_abacus-lcao-scan/orb/Orb_DZP_E100_Full/C/C_gga_10au_100Ry_2s2p1d.orb
/home/mhchen_pkuhpc/mhchen_cls/lustre2/5_liurenxi/03a01_abacus-lcao-scan/orb/Orb_DZP_E100_Full/H/H_gga_10au_100Ry_2s1p.orb

ATOMIC_POSITIONS
Cartesian    # Cartesian(Unit is LATTICE_CONSTANT)
C
0.0
6
1.393218 0.036291 -0.633280 m 0 0 0 
0.728036 -1.188402 -0.633302 m 0 0 0 
-0.665180 -1.224708 -0.633280 m 0 0 0 
-1.393204 -0.036297 -0.633302 m 0 0 0 
-0.728038 1.188416 -0.633280 m 0 0 0 
0.665168 1.224699 -0.633302 m 0 0 0 
H
0.0
6
2.474274 0.064448 -0.631724 m 0 0 0 
1.292959 -2.110541 -0.631740 m 0 0 0 
-1.181323 -2.175008 -0.631724 m 0 0 0 
-2.474261 -0.064465 -0.631740 m 0 0 0 
-1.292951 2.110560 -0.631724 m 0 0 0 
1.181303 2.175006 -0.631740 m 0 0 0 
C_empty
0.0
1
0.000000 0.000000 3.082619 m 0 0 0 
H_empty
0.0
4
0.586878 0.838174 3.446377 m 0 0 0 
-1.019319 0.089164 3.446377 m 0 0 0 
0.000000 0.000000 1.996670 m 0 0 0 
0.432441 -0.927338 3.446377 m 0 0 0 
