%BLOCK LATTICE_CART
0.000000000000    1.885800012980    1.885800012980    
1.885800012980    0.000000000000    1.885800012980    
1.885800012980    1.885800012980    0.000000000000    
%END BLOCK LATTICE_CART
%BLOCK POSITIONS_FRAC
al    0.000000000000    0.000000000000    0.000000000000
%END BLOCK POSITIONS_FRAC
%BLOCK SPECIES_POT
Al al_HC.lda.recpot
%END BLOCK SPECIES_POT
