%BLOCK LATTICE_CART
   2.636870428359436   0.000000004236243   0.000000010057286
   0.000000004236243   2.636870428788124  -0.000000001733581
   0.000000010057286  -0.000000001733581   2.636870428787697
%END BLOCK LATTICE_CART
%BLOCK POSITIONS_FRAC
    Al   0.000000000000000   0.000000000000000   0.000000000000000
%END BLOCK POSITIONS_FRAC
%BLOCK SPECIES_POT
    Al al.lda.recpot                                                                          
%END BLOCK SPECIES_POT
