%BLOCK LATTICE_CART
   2.805799707700000   0.000000000000000   0.000000000000000
   1.402899853850000   2.429893824799152   0.000000000000000
   0.000000000000003   0.000000000000002  50.951200123427547
%END BLOCK LATTICE_CART
%BLOCK POSITIONS_FRAC
    Al   0.000000000000000   0.000000000000000   0.000245321987316
    Al   0.333333333300000   0.333333333300000   0.045385664503827
    Al   0.666666666700000   0.666666666700000   0.090572433822958
    Al   0.000000000000000   0.000000000000000   0.135776503665115
    Al   0.333333333300000   0.333333333300000   0.181493238093011
    Al   0.000000000000000   0.000000000000000   0.227153226908754
    Al   0.633333333300000   0.633333333300000   0.272982057596084
    Al   0.966666666700000   0.966666666700000   0.318610096576198
    Al   0.300000000000000   0.300000000000000   0.363746899395650
    Al   0.633333333300000   0.633333333300000   0.408900160845533
    Al   0.966666666700000   0.966666666700000   0.454546615605953
    Al   0.633333333300000   0.633333333300000   0.500192986667375
    Al   0.300000000000000   0.300000000000000   0.545346001080104
    Al   0.966666666700000   0.966666666700000   0.590482424159236
    Al   0.633333333300000   0.633333333300000   0.636109911554718
    Al   0.000000000000000   0.000000000000000   0.681938114773379
    Al   0.333333333300000   0.333333333300000   0.727597439568183
    Al   0.000000000000000   0.000000000000000   0.773313474974888
    Al   0.666666666700000   0.666666666700000   0.818516946991532
    Al   0.333333333300000   0.333333333300000   0.863703203540928
    Al   0.000000000000000   0.000000000000000   0.908843224577408
    Al   0.666666666700000   0.666666666700000   0.954544206808232
%END BLOCK POSITIONS_FRAC
%BLOCK SPECIES_POT
    Al al_HC.lda.recpot                                                                       
%END BLOCK SPECIES_POT
%BLOCK ION_OPTIMIZATION
           0           0           1
           0           0           1
           0           0           1
           0           0           1
           0           0           1
           0           0           1
           0           0           1
           0           0           1
           0           0           1
           0           0           1
           0           0           1
           0           0           1
           0           0           1
           0           0           1
           0           0           1
           0           0           1
           0           0           1
           0           0           1
           0           0           1
           0           0           1
           0           0           1
           0           0           1
%END BLOCK ION_OPTIMIZATION
