%BLOCK LATTICE_CART
   3.110556344829770  -0.000086564315416  -0.000000027900130
  -1.555353106715072   2.693777475929801  -0.000000023957233
  -0.000000009732555  -0.000000012686829   5.096786023742988
%END BLOCK LATTICE_CART
%BLOCK POSITIONS_FRAC
    Mg   0.000000000000000   0.000000000000000   0.000000000000000
    Mg   0.666666666667000   0.333333333333000   0.500000000000000
%END BLOCK POSITIONS_FRAC
%BLOCK SPECIES_POT
    Mg mg.lda.recpot                                                                          
%END BLOCK SPECIES_POT
