%BLOCK LATTICE_CART
2.806843720933    0.000000000000    0.000000000000    
1.403421860467    2.430797966781    0.000000000000    
0.000000000000    0.000000000000    22.917783013404    
%END BLOCK LATTICE_CART
%BLOCK POSITIONS_FRAC
Al    0.000000000000    0.000000000000    0.000000000000
Al    0.333333333333    0.333333333333    0.100000000000
Al    0.666666666667    0.666666666667    0.200000000000
Al    0.000000000000    0.000000000000    0.300000000000
Al    0.333333333333    0.333333333333    0.400000000000
%END BLOCK POSITIONS_FRAC
%BLOCK SPECIES_POT
Al al.lda.recpot
%END BLOCK SPECIES_POT
