%BLOCK LATTICE_CART
0.000000000000    3.018883939347    3.018883939347    
3.018883939347    0.000000000000    3.018883939347    
3.018883939347    3.018883939347    0.000000000000    
%END BLOCK LATTICE_CART
%BLOCK POSITIONS_FRAC
In    0.000000000000    0.000000000000    0.000000000000
As    0.250000000000    0.250000000000    0.250000000000
%END BLOCK POSITIONS_FRAC
%BLOCK SPECIES_POT
In in.gga.recpot
As as.gga.recpot
%END BLOCK SPECIES_POT
