%BLOCK LATTICE_CART
   2.805799707700000   0.000000000000000   0.000000000000000
   1.402899853850000   2.429893824799152   0.000000000000000
   0.000000000000003   0.000000000000002  50.996908995512499
%END BLOCK LATTICE_CART
%BLOCK POSITIONS_FRAC
    Al   0.000000000000000   0.000000000000000   0.000217338956596
    Al   0.333333333300000   0.333333333300000   0.045340023010593
    Al   0.666666666700000   0.666666666700000   0.090441325383689
    Al   0.000000000000000   0.000000000000000   0.135558832301468
    Al   0.333333333300000   0.333333333300000   0.181248550314441
    Al   1.000000000000000   1.000000000000000   0.227374646783913
    Al   0.400000000000000   0.400000000000000   0.273594574206828
    Al   0.733333333300000   0.733333333300000   0.318735621772807
    Al   0.066666666700000   0.066666666700000   0.363813237134957
    Al   0.400000000000000   0.400000000000000   0.408908674188848
    Al   0.733333333300000   0.733333333300000   0.454544785963523
    Al   0.400000000000000   0.400000000000000   0.500180969189215
    Al   0.066666666700000   0.066666666700000   0.545276599327461
    Al   0.733333333300000   0.733333333300000   0.590354513030333
    Al   0.400000000000000   0.400000000000000   0.635495892756108
    Al   0.000000000000000   0.000000000000000   0.681716173907264
    Al   0.333333333300000   0.333333333300000   0.727842629331617
    Al   0.000000000000000   0.000000000000000   0.773532673214584
    Al   0.666666666700000   0.666666666700000   0.818650428568175
    Al   0.333333333300000   0.333333333300000   0.863751921555414
    Al   0.000000000000000   0.000000000000000   0.908874708071708
    Al   0.666666666700000   0.666666666700000   0.954546046030678
%END BLOCK POSITIONS_FRAC
%BLOCK SPECIES_POT
    Al al_HC.lda.recpot                                                                       
%END BLOCK SPECIES_POT
%BLOCK ION_OPTIMIZATION
           0           0           1
           0           0           1
           0           0           1
           0           0           1
           0           0           1
           0           0           1
           0           0           1
           0           0           1
           0           0           1
           0           0           1
           0           0           1
           0           0           1
           0           0           1
           0           0           1
           0           0           1
           0           0           1
           0           0           1
           0           0           1
           0           0           1
           0           0           1
           0           0           1
           0           0           1
%END BLOCK ION_OPTIMIZATION
