ATOMIC_SPECIES
Al 27 al.lda.lps

LATTICE_CONSTANT
7.50241114482

LATTICE_VECTORS
0.707106781187 0 0 #latvec1
0.353553390593 0.612372435696 0 #latvec2
0 0 11.5470053838 #latvec3

ATOMIC_POSITIONS
Direct

Al #label
0 #magnetism
20 #number of atoms
0  0  0.999807969361  m  0  0  1
0.333333333332  0.333333333332  0.0495251339721  m  0  0  1
0.666666666668  0.666666666668  0.0995856366568  m  0  0  1
0  0  0.14960515144  m  0  0  1
0.333333333332  0.333333333332  0.199672858007  m  0  0  1
0.766666666666  0.766666666666  0.250760427786  m  0  0  1
0.1  0.1  0.300724556778  m  0  0  1
0.433333333332  0.433333333332  0.350706090825  m  0  0  1
0.766666666666  0.766666666666  0.400330631738  m  0  0  1
0.1  0.1  0.450145521091  m  0  0  1
0.766666666666  0.766666666666  0.499945705734  m  0  0  1
0.433333333332  0.433333333332  0.549507187573  m  0  0  1
0.1  0.1  0.599393235902  m  0  0  1
0.766666666666  0.766666666666  0.649278665421  m  0  0  1
0.333333333332  0.333333333332  0.700310130563  m  0  0  1
0  0  0.75031668166  m  0  0  1
0.666666666668  0.666666666668  0.80026069216  m  0  0  1
0.333333333332  0.333333333332  0.850269486222  m  0  0  1
0  0  0.899965430138  m  0  0  1
0.666666666668  0.666666666668  0.949888806972  m  0  0  1
