%BLOCK LATTICE_CART
   0.000922006703540   2.805627982375435   2.805832490329990
   2.805819716216388   0.001084473764667   2.805862457990883
   2.805780073467596   2.805618307158682   0.000879063581638
%END BLOCK LATTICE_CART
%BLOCK POSITIONS_FRAC
    Li   0.000000000000000   0.000000000000000   0.000000000000000
    Li   0.250000000000000   0.250000000000000   0.250000000000000
%END BLOCK POSITIONS_FRAC
%BLOCK SPECIES_POT
    Li li.lda.recpot                                                                          
%END BLOCK SPECIES_POT
