%BLOCK LATTICE_CART
   2.699387483670061   0.000000002424806   0.000000006192940
   0.000000002424806   2.699387485413294  -0.000000001941622
   0.000000006192940  -0.000000001941622   2.699387485413538
%END BLOCK LATTICE_CART
%BLOCK POSITIONS_FRAC
    Al   0.000000000000000   0.000000000000000   0.000000000000000
%END BLOCK POSITIONS_FRAC
%BLOCK SPECIES_POT
    Al al.lda.recpot                                                                          
%END BLOCK SPECIES_POT
