%BLOCK LATTICE_CART
  -1.676439523846345   1.675398137842217   1.675409575144668
   1.675400327189001  -1.676431455065904   1.675401494315592
   1.675403972222455   1.675393702039592  -1.676435018754260
%END BLOCK LATTICE_CART
%BLOCK POSITIONS_FRAC
    Li   0.000000000000000   0.000000000000000   0.000000000000000
%END BLOCK POSITIONS_FRAC
%BLOCK SPECIES_POT
    Li li.lda.recpot                                                                          
%END BLOCK SPECIES_POT
