INPUT_PARAMETERS
#Parameters (1.General)
suffix			blpstest
calculation     scf
esolver_type    ofdft
nbands			28
symmetry		1
pseudo_dir      /home/dell/2_software/g_pPROFESS/BLPSLibrary-master/LDA/real
pseudo_rcut     16

#Parameters (2.Iteration)
ecutwfc			60
scf_nmax		100

#Parameters (3.Basis)
basis_type		pw

of_read_kernel  1
of_kernel_file  7PROFESS_KERNEL.dat
