%BLOCK LATTICE_CART
3.051255230000    0.000000000000    0.000000000000    
0.000000000000    5.055267120000    0.000000000000    
0.000000000000    0.000000000000    5.276943100000    
%END BLOCK LATTICE_CART
%BLOCK POSITIONS_FRAC
Li    0.000000000000    0.000000000000    0.994525500000
Li    0.500000000000    0.000000000000    0.493403610000
Li    0.500000000000    0.500000000000    0.836006990000
Mg    0.000000000000    0.500000000000    0.342730900000
%END BLOCK POSITIONS_FRAC
%BLOCK SPECIES_POT
Li li.gga.recpot
Mg mg.gga.recpot
%END BLOCK SPECIES_POT
