%BLOCK LATTICE_CART
   3.112650098771135  -0.000081102670934   0.000000015760442
  -1.556395286660149   2.695593507987518  -0.000000003780133
   0.000000010104769  -0.000000002798673   5.090495063017425
%END BLOCK LATTICE_CART
%BLOCK POSITIONS_FRAC
    Mg   0.000000000000000   0.000000000000000   0.000000000000000
    Mg   0.666666666667000   0.333333333333000   0.500000000000000
%END BLOCK POSITIONS_FRAC
%BLOCK SPECIES_POT
    Mg mg.lda.recpot                                                                          
%END BLOCK SPECIES_POT
