%BLOCK LATTICE_CART
3.912546893225    0.000000000000    0.000000000000    
-1.956273446613    3.388365003031    0.000000000000    
0.000000000000    0.000000000000    6.389162322076    
%END BLOCK LATTICE_CART
%BLOCK POSITIONS_FRAC
Mg    0.000000000000    0.000000000000    0.000000000000
Mg    0.666666666667    0.333333333333    0.500000000000
%END BLOCK POSITIONS_FRAC
%BLOCK SPECIES_POT
Mg mg.lda.recpot
%END BLOCK SPECIES_POT
