%BLOCK LATTICE_CART
2.795892689263    0.000000000000    0.000000000000    
-1.397946344632    2.421314095157    0.000000000000    
0.000000000000    0.000000000000    4.659944771360    
%END BLOCK LATTICE_CART
%BLOCK POSITIONS_FRAC
Al    0.000000000000    0.000000000000    0.000000000000
Al    0.666666666667    0.333333333333    0.500000000000
%END BLOCK POSITIONS_FRAC
%BLOCK SPECIES_POT
Al al.lda.recpot
%END BLOCK SPECIES_POT
