%BLOCK LATTICE_CART
   0.000875478662794   2.803351676491467   2.803558973582710
   2.803544051762887   0.001037980403887   2.803589483860504
   2.803503294215570   2.803341429094899   0.000829852316028
%END BLOCK LATTICE_CART
%BLOCK POSITIONS_FRAC
    Li   0.000000000000000   0.000000000000000   0.000000000000000
    Li   0.250000000000000   0.250000000000000   0.250000000000000
%END BLOCK POSITIONS_FRAC
%BLOCK SPECIES_POT
    Li li.lda.recpot                                                                          
%END BLOCK SPECIES_POT
