%BLOCK LATTICE_CART
   3.152736827086214   0.000120089650686  -0.000000197716816
  -1.576264272418975   2.730409982306959   0.000000029963097
  -0.000000130892475   0.000000015531028   5.130004428992827
%END BLOCK LATTICE_CART
%BLOCK POSITIONS_FRAC
    Mg   0.000000000000000   0.000000000000000   0.000000000000000
    Mg   0.666666666667000   0.333333333333000   0.500000000000000
%END BLOCK POSITIONS_FRAC
%BLOCK SPECIES_POT
    Mg mg.lda.recpot                                                                          
%END BLOCK SPECIES_POT
