%BLOCK LATTICE_CART
32.006362093188    0.000000000000    0.000000000000    
0.000000000000    32.006362093188    0.000000000000    
0.000000000000    0.000000000000    32.006362093188    
%END BLOCK LATTICE_CART
%BLOCK POSITIONS_FRAC
Si    0.000000000000    0.000000000000    0.000000000000
Si    0.083333333333    0.083333333333    0.000000000000
Si    0.083333333333    0.000000000000    0.083333333333
Si    0.000000000000    0.083333333333    0.083333333333
Si    0.041666666667    0.041666666667    0.041666666667
Si    0.125000000000    0.125000000000    0.041666666667
Si    0.125000000000    0.041666666667    0.125000000000
Si    0.041666666667    0.125000000000    0.125000000000
Si    0.000000000000    0.000000000000    0.166666666667
Si    0.083333333333    0.083333333333    0.166666666667
Si    0.083333333333    0.000000000000    0.250000000000
Si    0.000000000000    0.083333333333    0.250000000000
Si    0.041666666667    0.041666666667    0.208333333333
Si    0.125000000000    0.125000000000    0.208333333333
Si    0.125000000000    0.041666666667    0.291666666667
Si    0.041666666667    0.125000000000    0.291666666667
Si    0.000000000000    0.000000000000    0.333333333333
Si    0.083333333333    0.083333333333    0.333333333333
Si    0.083333333333    0.000000000000    0.416666666667
Si    0.000000000000    0.083333333333    0.416666666667
Si    0.041666666667    0.041666666667    0.375000000000
Si    0.125000000000    0.125000000000    0.375000000000
Si    0.125000000000    0.041666666667    0.458333333333
Si    0.041666666667    0.125000000000    0.458333333333
Si    0.000000000000    0.000000000000    0.500000000000
Si    0.083333333333    0.083333333333    0.500000000000
Si    0.083333333333    0.000000000000    0.583333333333
Si    0.000000000000    0.083333333333    0.583333333333
Si    0.041666666667    0.041666666667    0.541666666667
Si    0.125000000000    0.125000000000    0.541666666667
Si    0.125000000000    0.041666666667    0.625000000000
Si    0.041666666667    0.125000000000    0.625000000000
Si    0.000000000000    0.000000000000    0.666666666667
Si    0.083333333333    0.083333333333    0.666666666667
Si    0.083333333333    0.000000000000    0.750000000000
Si    0.000000000000    0.083333333333    0.750000000000
Si    0.041666666667    0.041666666667    0.708333333333
Si    0.125000000000    0.125000000000    0.708333333333
Si    0.125000000000    0.041666666667    0.791666666667
Si    0.041666666667    0.125000000000    0.791666666667
Si    0.000000000000    0.000000000000    0.833333333333
Si    0.083333333333    0.083333333333    0.833333333333
Si    0.083333333333    0.000000000000    0.916666666667
Si    0.000000000000    0.083333333333    0.916666666667
Si    0.041666666667    0.041666666667    0.875000000000
Si    0.125000000000    0.125000000000    0.875000000000
Si    0.125000000000    0.041666666667    0.958333333333
Si    0.041666666667    0.125000000000    0.958333333333
Si    0.000000000000    0.166666666667    0.000000000000
Si    0.083333333333    0.250000000000    0.000000000000
Si    0.083333333333    0.166666666667    0.083333333333
Si    0.000000000000    0.250000000000    0.083333333333
Si    0.041666666667    0.208333333333    0.041666666667
Si    0.125000000000    0.291666666667    0.041666666667
Si    0.125000000000    0.208333333333    0.125000000000
Si    0.041666666667    0.291666666667    0.125000000000
Si    0.000000000000    0.166666666667    0.166666666667
Si    0.083333333333    0.250000000000    0.166666666667
Si    0.083333333333    0.166666666667    0.250000000000
Si    0.000000000000    0.250000000000    0.250000000000
Si    0.041666666667    0.208333333333    0.208333333333
Si    0.125000000000    0.291666666667    0.208333333333
Si    0.125000000000    0.208333333333    0.291666666667
Si    0.041666666667    0.291666666667    0.291666666667
Si    0.000000000000    0.166666666667    0.333333333333
Si    0.083333333333    0.250000000000    0.333333333333
Si    0.083333333333    0.166666666667    0.416666666667
Si    0.000000000000    0.250000000000    0.416666666667
Si    0.041666666667    0.208333333333    0.375000000000
Si    0.125000000000    0.291666666667    0.375000000000
Si    0.125000000000    0.208333333333    0.458333333333
Si    0.041666666667    0.291666666667    0.458333333333
Si    0.000000000000    0.166666666667    0.500000000000
Si    0.083333333333    0.250000000000    0.500000000000
Si    0.083333333333    0.166666666667    0.583333333333
Si    0.000000000000    0.250000000000    0.583333333333
Si    0.041666666667    0.208333333333    0.541666666667
Si    0.125000000000    0.291666666667    0.541666666667
Si    0.125000000000    0.208333333333    0.625000000000
Si    0.041666666667    0.291666666667    0.625000000000
Si    0.000000000000    0.166666666667    0.666666666667
Si    0.083333333333    0.250000000000    0.666666666667
Si    0.083333333333    0.166666666667    0.750000000000
Si    0.000000000000    0.250000000000    0.750000000000
Si    0.041666666667    0.208333333333    0.708333333333
Si    0.125000000000    0.291666666667    0.708333333333
Si    0.125000000000    0.208333333333    0.791666666667
Si    0.041666666667    0.291666666667    0.791666666667
Si    0.000000000000    0.166666666667    0.833333333333
Si    0.083333333333    0.250000000000    0.833333333333
Si    0.083333333333    0.166666666667    0.916666666667
Si    0.000000000000    0.250000000000    0.916666666667
Si    0.041666666667    0.208333333333    0.875000000000
Si    0.125000000000    0.291666666667    0.875000000000
Si    0.125000000000    0.208333333333    0.958333333333
Si    0.041666666667    0.291666666667    0.958333333333
Si    0.000000000000    0.333333333333    0.000000000000
Si    0.083333333333    0.416666666667    0.000000000000
Si    0.083333333333    0.333333333333    0.083333333333
Si    0.000000000000    0.416666666667    0.083333333333
Si    0.041666666667    0.375000000000    0.041666666667
Si    0.125000000000    0.458333333333    0.041666666667
Si    0.125000000000    0.375000000000    0.125000000000
Si    0.041666666667    0.458333333333    0.125000000000
Si    0.000000000000    0.333333333333    0.166666666667
Si    0.083333333333    0.416666666667    0.166666666667
Si    0.083333333333    0.333333333333    0.250000000000
Si    0.000000000000    0.416666666667    0.250000000000
Si    0.041666666667    0.375000000000    0.208333333333
Si    0.125000000000    0.458333333333    0.208333333333
Si    0.125000000000    0.375000000000    0.291666666667
Si    0.041666666667    0.458333333333    0.291666666667
Si    0.000000000000    0.333333333333    0.333333333333
Si    0.083333333333    0.416666666667    0.333333333333
Si    0.083333333333    0.333333333333    0.416666666667
Si    0.000000000000    0.416666666667    0.416666666667
Si    0.041666666667    0.375000000000    0.375000000000
Si    0.125000000000    0.458333333333    0.375000000000
Si    0.125000000000    0.375000000000    0.458333333333
Si    0.041666666667    0.458333333333    0.458333333333
Si    0.000000000000    0.333333333333    0.500000000000
Si    0.083333333333    0.416666666667    0.500000000000
Si    0.083333333333    0.333333333333    0.583333333333
Si    0.000000000000    0.416666666667    0.583333333333
Si    0.041666666667    0.375000000000    0.541666666667
Si    0.125000000000    0.458333333333    0.541666666667
Si    0.125000000000    0.375000000000    0.625000000000
Si    0.041666666667    0.458333333333    0.625000000000
Si    0.000000000000    0.333333333333    0.666666666667
Si    0.083333333333    0.416666666667    0.666666666667
Si    0.083333333333    0.333333333333    0.750000000000
Si    0.000000000000    0.416666666667    0.750000000000
Si    0.041666666667    0.375000000000    0.708333333333
Si    0.125000000000    0.458333333333    0.708333333333
Si    0.125000000000    0.375000000000    0.791666666667
Si    0.041666666667    0.458333333333    0.791666666667
Si    0.000000000000    0.333333333333    0.833333333333
Si    0.083333333333    0.416666666667    0.833333333333
Si    0.083333333333    0.333333333333    0.916666666667
Si    0.000000000000    0.416666666667    0.916666666667
Si    0.041666666667    0.375000000000    0.875000000000
Si    0.125000000000    0.458333333333    0.875000000000
Si    0.125000000000    0.375000000000    0.958333333333
Si    0.041666666667    0.458333333333    0.958333333333
Si    0.000000000000    0.500000000000    0.000000000000
Si    0.083333333333    0.583333333333    0.000000000000
Si    0.083333333333    0.500000000000    0.083333333333
Si    0.000000000000    0.583333333333    0.083333333333
Si    0.041666666667    0.541666666667    0.041666666667
Si    0.125000000000    0.625000000000    0.041666666667
Si    0.125000000000    0.541666666667    0.125000000000
Si    0.041666666667    0.625000000000    0.125000000000
Si    0.000000000000    0.500000000000    0.166666666667
Si    0.083333333333    0.583333333333    0.166666666667
Si    0.083333333333    0.500000000000    0.250000000000
Si    0.000000000000    0.583333333333    0.250000000000
Si    0.041666666667    0.541666666667    0.208333333333
Si    0.125000000000    0.625000000000    0.208333333333
Si    0.125000000000    0.541666666667    0.291666666667
Si    0.041666666667    0.625000000000    0.291666666667
Si    0.000000000000    0.500000000000    0.333333333333
Si    0.083333333333    0.583333333333    0.333333333333
Si    0.083333333333    0.500000000000    0.416666666667
Si    0.000000000000    0.583333333333    0.416666666667
Si    0.041666666667    0.541666666667    0.375000000000
Si    0.125000000000    0.625000000000    0.375000000000
Si    0.125000000000    0.541666666667    0.458333333333
Si    0.041666666667    0.625000000000    0.458333333333
Si    0.000000000000    0.500000000000    0.500000000000
Si    0.083333333333    0.583333333333    0.500000000000
Si    0.083333333333    0.500000000000    0.583333333333
Si    0.000000000000    0.583333333333    0.583333333333
Si    0.041666666667    0.541666666667    0.541666666667
Si    0.125000000000    0.625000000000    0.541666666667
Si    0.125000000000    0.541666666667    0.625000000000
Si    0.041666666667    0.625000000000    0.625000000000
Si    0.000000000000    0.500000000000    0.666666666667
Si    0.083333333333    0.583333333333    0.666666666667
Si    0.083333333333    0.500000000000    0.750000000000
Si    0.000000000000    0.583333333333    0.750000000000
Si    0.041666666667    0.541666666667    0.708333333333
Si    0.125000000000    0.625000000000    0.708333333333
Si    0.125000000000    0.541666666667    0.791666666667
Si    0.041666666667    0.625000000000    0.791666666667
Si    0.000000000000    0.500000000000    0.833333333333
Si    0.083333333333    0.583333333333    0.833333333333
Si    0.083333333333    0.500000000000    0.916666666667
Si    0.000000000000    0.583333333333    0.916666666667
Si    0.041666666667    0.541666666667    0.875000000000
Si    0.125000000000    0.625000000000    0.875000000000
Si    0.125000000000    0.541666666667    0.958333333333
Si    0.041666666667    0.625000000000    0.958333333333
Si    0.000000000000    0.666666666667    0.000000000000
Si    0.083333333333    0.750000000000    0.000000000000
Si    0.083333333333    0.666666666667    0.083333333333
Si    0.000000000000    0.750000000000    0.083333333333
Si    0.041666666667    0.708333333333    0.041666666667
Si    0.125000000000    0.791666666667    0.041666666667
Si    0.125000000000    0.708333333333    0.125000000000
Si    0.041666666667    0.791666666667    0.125000000000
Si    0.000000000000    0.666666666667    0.166666666667
Si    0.083333333333    0.750000000000    0.166666666667
Si    0.083333333333    0.666666666667    0.250000000000
Si    0.000000000000    0.750000000000    0.250000000000
Si    0.041666666667    0.708333333333    0.208333333333
Si    0.125000000000    0.791666666667    0.208333333333
Si    0.125000000000    0.708333333333    0.291666666667
Si    0.041666666667    0.791666666667    0.291666666667
Si    0.000000000000    0.666666666667    0.333333333333
Si    0.083333333333    0.750000000000    0.333333333333
Si    0.083333333333    0.666666666667    0.416666666667
Si    0.000000000000    0.750000000000    0.416666666667
Si    0.041666666667    0.708333333333    0.375000000000
Si    0.125000000000    0.791666666667    0.375000000000
Si    0.125000000000    0.708333333333    0.458333333333
Si    0.041666666667    0.791666666667    0.458333333333
Si    0.000000000000    0.666666666667    0.500000000000
Si    0.083333333333    0.750000000000    0.500000000000
Si    0.083333333333    0.666666666667    0.583333333333
Si    0.000000000000    0.750000000000    0.583333333333
Si    0.041666666667    0.708333333333    0.541666666667
Si    0.125000000000    0.791666666667    0.541666666667
Si    0.125000000000    0.708333333333    0.625000000000
Si    0.041666666667    0.791666666667    0.625000000000
Si    0.000000000000    0.666666666667    0.666666666667
Si    0.083333333333    0.750000000000    0.666666666667
Si    0.083333333333    0.666666666667    0.750000000000
Si    0.000000000000    0.750000000000    0.750000000000
Si    0.041666666667    0.708333333333    0.708333333333
Si    0.125000000000    0.791666666667    0.708333333333
Si    0.125000000000    0.708333333333    0.791666666667
Si    0.041666666667    0.791666666667    0.791666666667
Si    0.000000000000    0.666666666667    0.833333333333
Si    0.083333333333    0.750000000000    0.833333333333
Si    0.083333333333    0.666666666667    0.916666666667
Si    0.000000000000    0.750000000000    0.916666666667
Si    0.041666666667    0.708333333333    0.875000000000
Si    0.125000000000    0.791666666667    0.875000000000
Si    0.125000000000    0.708333333333    0.958333333333
Si    0.041666666667    0.791666666667    0.958333333333
Si    0.000000000000    0.833333333333    0.000000000000
Si    0.083333333333    0.916666666667    0.000000000000
Si    0.083333333333    0.833333333333    0.083333333333
Si    0.000000000000    0.916666666667    0.083333333333
Si    0.041666666667    0.875000000000    0.041666666667
Si    0.125000000000    0.958333333333    0.041666666667
Si    0.125000000000    0.875000000000    0.125000000000
Si    0.041666666667    0.958333333333    0.125000000000
Si    0.000000000000    0.833333333333    0.166666666667
Si    0.083333333333    0.916666666667    0.166666666667
Si    0.083333333333    0.833333333333    0.250000000000
Si    0.000000000000    0.916666666667    0.250000000000
Si    0.041666666667    0.875000000000    0.208333333333
Si    0.125000000000    0.958333333333    0.208333333333
Si    0.125000000000    0.875000000000    0.291666666667
Si    0.041666666667    0.958333333333    0.291666666667
Si    0.000000000000    0.833333333333    0.333333333333
Si    0.083333333333    0.916666666667    0.333333333333
Si    0.083333333333    0.833333333333    0.416666666667
Si    0.000000000000    0.916666666667    0.416666666667
Si    0.041666666667    0.875000000000    0.375000000000
Si    0.125000000000    0.958333333333    0.375000000000
Si    0.125000000000    0.875000000000    0.458333333333
Si    0.041666666667    0.958333333333    0.458333333333
Si    0.000000000000    0.833333333333    0.500000000000
Si    0.083333333333    0.916666666667    0.500000000000
Si    0.083333333333    0.833333333333    0.583333333333
Si    0.000000000000    0.916666666667    0.583333333333
Si    0.041666666667    0.875000000000    0.541666666667
Si    0.125000000000    0.958333333333    0.541666666667
Si    0.125000000000    0.875000000000    0.625000000000
Si    0.041666666667    0.958333333333    0.625000000000
Si    0.000000000000    0.833333333333    0.666666666667
Si    0.083333333333    0.916666666667    0.666666666667
Si    0.083333333333    0.833333333333    0.750000000000
Si    0.000000000000    0.916666666667    0.750000000000
Si    0.041666666667    0.875000000000    0.708333333333
Si    0.125000000000    0.958333333333    0.708333333333
Si    0.125000000000    0.875000000000    0.791666666667
Si    0.041666666667    0.958333333333    0.791666666667
Si    0.000000000000    0.833333333333    0.833333333333
Si    0.083333333333    0.916666666667    0.833333333333
Si    0.083333333333    0.833333333333    0.916666666667
Si    0.000000000000    0.916666666667    0.916666666667
Si    0.041666666667    0.875000000000    0.875000000000
Si    0.125000000000    0.958333333333    0.875000000000
Si    0.125000000000    0.875000000000    0.958333333333
Si    0.041666666667    0.958333333333    0.958333333333
Si    0.166666666667    0.000000000000    0.000000000000
Si    0.250000000000    0.083333333333    0.000000000000
Si    0.250000000000    0.000000000000    0.083333333333
Si    0.166666666667    0.083333333333    0.083333333333
Si    0.208333333333    0.041666666667    0.041666666667
Si    0.291666666667    0.125000000000    0.041666666667
Si    0.291666666667    0.041666666667    0.125000000000
Si    0.208333333333    0.125000000000    0.125000000000
Si    0.166666666667    0.000000000000    0.166666666667
Si    0.250000000000    0.083333333333    0.166666666667
Si    0.250000000000    0.000000000000    0.250000000000
Si    0.166666666667    0.083333333333    0.250000000000
Si    0.208333333333    0.041666666667    0.208333333333
Si    0.291666666667    0.125000000000    0.208333333333
Si    0.291666666667    0.041666666667    0.291666666667
Si    0.208333333333    0.125000000000    0.291666666667
Si    0.166666666667    0.000000000000    0.333333333333
Si    0.250000000000    0.083333333333    0.333333333333
Si    0.250000000000    0.000000000000    0.416666666667
Si    0.166666666667    0.083333333333    0.416666666667
Si    0.208333333333    0.041666666667    0.375000000000
Si    0.291666666667    0.125000000000    0.375000000000
Si    0.291666666667    0.041666666667    0.458333333333
Si    0.208333333333    0.125000000000    0.458333333333
Si    0.166666666667    0.000000000000    0.500000000000
Si    0.250000000000    0.083333333333    0.500000000000
Si    0.250000000000    0.000000000000    0.583333333333
Si    0.166666666667    0.083333333333    0.583333333333
Si    0.208333333333    0.041666666667    0.541666666667
Si    0.291666666667    0.125000000000    0.541666666667
Si    0.291666666667    0.041666666667    0.625000000000
Si    0.208333333333    0.125000000000    0.625000000000
Si    0.166666666667    0.000000000000    0.666666666667
Si    0.250000000000    0.083333333333    0.666666666667
Si    0.250000000000    0.000000000000    0.750000000000
Si    0.166666666667    0.083333333333    0.750000000000
Si    0.208333333333    0.041666666667    0.708333333333
Si    0.291666666667    0.125000000000    0.708333333333
Si    0.291666666667    0.041666666667    0.791666666667
Si    0.208333333333    0.125000000000    0.791666666667
Si    0.166666666667    0.000000000000    0.833333333333
Si    0.250000000000    0.083333333333    0.833333333333
Si    0.250000000000    0.000000000000    0.916666666667
Si    0.166666666667    0.083333333333    0.916666666667
Si    0.208333333333    0.041666666667    0.875000000000
Si    0.291666666667    0.125000000000    0.875000000000
Si    0.291666666667    0.041666666667    0.958333333333
Si    0.208333333333    0.125000000000    0.958333333333
Si    0.166666666667    0.166666666667    0.000000000000
Si    0.250000000000    0.250000000000    0.000000000000
Si    0.250000000000    0.166666666667    0.083333333333
Si    0.166666666667    0.250000000000    0.083333333333
Si    0.208333333333    0.208333333333    0.041666666667
Si    0.291666666667    0.291666666667    0.041666666667
Si    0.291666666667    0.208333333333    0.125000000000
Si    0.208333333333    0.291666666667    0.125000000000
Si    0.166666666667    0.166666666667    0.166666666667
Si    0.250000000000    0.250000000000    0.166666666667
Si    0.250000000000    0.166666666667    0.250000000000
Si    0.166666666667    0.250000000000    0.250000000000
Si    0.208333333333    0.208333333333    0.208333333333
Si    0.291666666667    0.291666666667    0.208333333333
Si    0.291666666667    0.208333333333    0.291666666667
Si    0.208333333333    0.291666666667    0.291666666667
Si    0.166666666667    0.166666666667    0.333333333333
Si    0.250000000000    0.250000000000    0.333333333333
Si    0.250000000000    0.166666666667    0.416666666667
Si    0.166666666667    0.250000000000    0.416666666667
Si    0.208333333333    0.208333333333    0.375000000000
Si    0.291666666667    0.291666666667    0.375000000000
Si    0.291666666667    0.208333333333    0.458333333333
Si    0.208333333333    0.291666666667    0.458333333333
Si    0.166666666667    0.166666666667    0.500000000000
Si    0.250000000000    0.250000000000    0.500000000000
Si    0.250000000000    0.166666666667    0.583333333333
Si    0.166666666667    0.250000000000    0.583333333333
Si    0.208333333333    0.208333333333    0.541666666667
Si    0.291666666667    0.291666666667    0.541666666667
Si    0.291666666667    0.208333333333    0.625000000000
Si    0.208333333333    0.291666666667    0.625000000000
Si    0.166666666667    0.166666666667    0.666666666667
Si    0.250000000000    0.250000000000    0.666666666667
Si    0.250000000000    0.166666666667    0.750000000000
Si    0.166666666667    0.250000000000    0.750000000000
Si    0.208333333333    0.208333333333    0.708333333333
Si    0.291666666667    0.291666666667    0.708333333333
Si    0.291666666667    0.208333333333    0.791666666667
Si    0.208333333333    0.291666666667    0.791666666667
Si    0.166666666667    0.166666666667    0.833333333333
Si    0.250000000000    0.250000000000    0.833333333333
Si    0.250000000000    0.166666666667    0.916666666667
Si    0.166666666667    0.250000000000    0.916666666667
Si    0.208333333333    0.208333333333    0.875000000000
Si    0.291666666667    0.291666666667    0.875000000000
Si    0.291666666667    0.208333333333    0.958333333333
Si    0.208333333333    0.291666666667    0.958333333333
Si    0.166666666667    0.333333333333    0.000000000000
Si    0.250000000000    0.416666666667    0.000000000000
Si    0.250000000000    0.333333333333    0.083333333333
Si    0.166666666667    0.416666666667    0.083333333333
Si    0.208333333333    0.375000000000    0.041666666667
Si    0.291666666667    0.458333333333    0.041666666667
Si    0.291666666667    0.375000000000    0.125000000000
Si    0.208333333333    0.458333333333    0.125000000000
Si    0.166666666667    0.333333333333    0.166666666667
Si    0.250000000000    0.416666666667    0.166666666667
Si    0.250000000000    0.333333333333    0.250000000000
Si    0.166666666667    0.416666666667    0.250000000000
Si    0.208333333333    0.375000000000    0.208333333333
Si    0.291666666667    0.458333333333    0.208333333333
Si    0.291666666667    0.375000000000    0.291666666667
Si    0.208333333333    0.458333333333    0.291666666667
Si    0.166666666667    0.333333333333    0.333333333333
Si    0.250000000000    0.416666666667    0.333333333333
Si    0.250000000000    0.333333333333    0.416666666667
Si    0.166666666667    0.416666666667    0.416666666667
Si    0.208333333333    0.375000000000    0.375000000000
Si    0.291666666667    0.458333333333    0.375000000000
Si    0.291666666667    0.375000000000    0.458333333333
Si    0.208333333333    0.458333333333    0.458333333333
Si    0.166666666667    0.333333333333    0.500000000000
Si    0.250000000000    0.416666666667    0.500000000000
Si    0.250000000000    0.333333333333    0.583333333333
Si    0.166666666667    0.416666666667    0.583333333333
Si    0.208333333333    0.375000000000    0.541666666667
Si    0.291666666667    0.458333333333    0.541666666667
Si    0.291666666667    0.375000000000    0.625000000000
Si    0.208333333333    0.458333333333    0.625000000000
Si    0.166666666667    0.333333333333    0.666666666667
Si    0.250000000000    0.416666666667    0.666666666667
Si    0.250000000000    0.333333333333    0.750000000000
Si    0.166666666667    0.416666666667    0.750000000000
Si    0.208333333333    0.375000000000    0.708333333333
Si    0.291666666667    0.458333333333    0.708333333333
Si    0.291666666667    0.375000000000    0.791666666667
Si    0.208333333333    0.458333333333    0.791666666667
Si    0.166666666667    0.333333333333    0.833333333333
Si    0.250000000000    0.416666666667    0.833333333333
Si    0.250000000000    0.333333333333    0.916666666667
Si    0.166666666667    0.416666666667    0.916666666667
Si    0.208333333333    0.375000000000    0.875000000000
Si    0.291666666667    0.458333333333    0.875000000000
Si    0.291666666667    0.375000000000    0.958333333333
Si    0.208333333333    0.458333333333    0.958333333333
Si    0.166666666667    0.500000000000    0.000000000000
Si    0.250000000000    0.583333333333    0.000000000000
Si    0.250000000000    0.500000000000    0.083333333333
Si    0.166666666667    0.583333333333    0.083333333333
Si    0.208333333333    0.541666666667    0.041666666667
Si    0.291666666667    0.625000000000    0.041666666667
Si    0.291666666667    0.541666666667    0.125000000000
Si    0.208333333333    0.625000000000    0.125000000000
Si    0.166666666667    0.500000000000    0.166666666667
Si    0.250000000000    0.583333333333    0.166666666667
Si    0.250000000000    0.500000000000    0.250000000000
Si    0.166666666667    0.583333333333    0.250000000000
Si    0.208333333333    0.541666666667    0.208333333333
Si    0.291666666667    0.625000000000    0.208333333333
Si    0.291666666667    0.541666666667    0.291666666667
Si    0.208333333333    0.625000000000    0.291666666667
Si    0.166666666667    0.500000000000    0.333333333333
Si    0.250000000000    0.583333333333    0.333333333333
Si    0.250000000000    0.500000000000    0.416666666667
Si    0.166666666667    0.583333333333    0.416666666667
Si    0.208333333333    0.541666666667    0.375000000000
Si    0.291666666667    0.625000000000    0.375000000000
Si    0.291666666667    0.541666666667    0.458333333333
Si    0.208333333333    0.625000000000    0.458333333333
Si    0.166666666667    0.500000000000    0.500000000000
Si    0.250000000000    0.583333333333    0.500000000000
Si    0.250000000000    0.500000000000    0.583333333333
Si    0.166666666667    0.583333333333    0.583333333333
Si    0.208333333333    0.541666666667    0.541666666667
Si    0.291666666667    0.625000000000    0.541666666667
Si    0.291666666667    0.541666666667    0.625000000000
Si    0.208333333333    0.625000000000    0.625000000000
Si    0.166666666667    0.500000000000    0.666666666667
Si    0.250000000000    0.583333333333    0.666666666667
Si    0.250000000000    0.500000000000    0.750000000000
Si    0.166666666667    0.583333333333    0.750000000000
Si    0.208333333333    0.541666666667    0.708333333333
Si    0.291666666667    0.625000000000    0.708333333333
Si    0.291666666667    0.541666666667    0.791666666667
Si    0.208333333333    0.625000000000    0.791666666667
Si    0.166666666667    0.500000000000    0.833333333333
Si    0.250000000000    0.583333333333    0.833333333333
Si    0.250000000000    0.500000000000    0.916666666667
Si    0.166666666667    0.583333333333    0.916666666667
Si    0.208333333333    0.541666666667    0.875000000000
Si    0.291666666667    0.625000000000    0.875000000000
Si    0.291666666667    0.541666666667    0.958333333333
Si    0.208333333333    0.625000000000    0.958333333333
Si    0.166666666667    0.666666666667    0.000000000000
Si    0.250000000000    0.750000000000    0.000000000000
Si    0.250000000000    0.666666666667    0.083333333333
Si    0.166666666667    0.750000000000    0.083333333333
Si    0.208333333333    0.708333333333    0.041666666667
Si    0.291666666667    0.791666666667    0.041666666667
Si    0.291666666667    0.708333333333    0.125000000000
Si    0.208333333333    0.791666666667    0.125000000000
Si    0.166666666667    0.666666666667    0.166666666667
Si    0.250000000000    0.750000000000    0.166666666667
Si    0.250000000000    0.666666666667    0.250000000000
Si    0.166666666667    0.750000000000    0.250000000000
Si    0.208333333333    0.708333333333    0.208333333333
Si    0.291666666667    0.791666666667    0.208333333333
Si    0.291666666667    0.708333333333    0.291666666667
Si    0.208333333333    0.791666666667    0.291666666667
Si    0.166666666667    0.666666666667    0.333333333333
Si    0.250000000000    0.750000000000    0.333333333333
Si    0.250000000000    0.666666666667    0.416666666667
Si    0.166666666667    0.750000000000    0.416666666667
Si    0.208333333333    0.708333333333    0.375000000000
Si    0.291666666667    0.791666666667    0.375000000000
Si    0.291666666667    0.708333333333    0.458333333333
Si    0.208333333333    0.791666666667    0.458333333333
Si    0.166666666667    0.666666666667    0.500000000000
Si    0.250000000000    0.750000000000    0.500000000000
Si    0.250000000000    0.666666666667    0.583333333333
Si    0.166666666667    0.750000000000    0.583333333333
Si    0.208333333333    0.708333333333    0.541666666667
Si    0.291666666667    0.791666666667    0.541666666667
Si    0.291666666667    0.708333333333    0.625000000000
Si    0.208333333333    0.791666666667    0.625000000000
Si    0.166666666667    0.666666666667    0.666666666667
Si    0.250000000000    0.750000000000    0.666666666667
Si    0.250000000000    0.666666666667    0.750000000000
Si    0.166666666667    0.750000000000    0.750000000000
Si    0.208333333333    0.708333333333    0.708333333333
Si    0.291666666667    0.791666666667    0.708333333333
Si    0.291666666667    0.708333333333    0.791666666667
Si    0.208333333333    0.791666666667    0.791666666667
Si    0.166666666667    0.666666666667    0.833333333333
Si    0.250000000000    0.750000000000    0.833333333333