%BLOCK LATTICE_CART
2.702641467314    0.000000000000    0.000000000000    
0.000000000000    2.702641467314    0.000000000000    
0.000000000000    0.000000000000    2.702641467314    
%END BLOCK LATTICE_CART
%BLOCK POSITIONS_FRAC
Li    0.000000000000    0.000000000000    0.000000000000
%END BLOCK POSITIONS_FRAC
%BLOCK SPECIES_POT
Li li.gga.recpot
%END BLOCK SPECIES_POT
