%BLOCK LATTICE_CART
   2.833725690800000   0.000000000000000   0.000000000000000
   1.416862845400000   2.454078435589407   0.000000000000000
   0.000000000000003   0.000000000000002  50.929337720757950
%END BLOCK LATTICE_CART
%BLOCK POSITIONS_FRAC
    Al   0.000000000000000   0.000000000000000   0.999970140110958
    Al   0.333333333300000   0.333333333300000   0.045444078179670
    Al   0.666666666700000   0.666666666700000   0.090925382574224
    Al   0.000000000000000   0.000000000000000   0.136396252315851
    Al   0.333333333300000   0.333333333300000   0.181806004373696
    Al   0.000000000000000   0.000000000000000   0.227173394452266
    Al   0.366666666700000   0.366666666700000   0.272748619585252
    Al   0.700000000000000   0.700000000000000   0.318207679059407
    Al   0.033333333300000   0.033333333300000   0.363663685088949
    Al   0.366666666700000   0.366666666700000   0.409123259627987
    Al   0.700000000000000   0.700000000000000   0.454545330315159
    Al   0.366666666700000   0.366666666700000   0.499967422155886
    Al   0.033333333300000   0.033333333300000   0.545427046654021
    Al   0.700000000000000   0.700000000000000   0.590883123937201
    Al   0.366666666700000   0.366666666700000   0.636342257883260
    Al   1.000000000000000   1.000000000000000   0.681917550904059
    Al   0.333333333300000   0.333333333300000   0.727284993054316
    Al   0.000000000000000   0.000000000000000   0.772694771903436
    Al   0.666666666700000   0.666666666700000   0.818165650910596
    Al   0.333333333300000   0.333333333300000   0.863646951390218
    Al   1.000000000000000   1.000000000000000   0.909120881245072
    Al   0.666666666700000   0.666666666700000   0.954545507387641
%END BLOCK POSITIONS_FRAC
%BLOCK SPECIES_POT
    Al al.lda.recpot                                                                          
%END BLOCK SPECIES_POT
%BLOCK ION_OPTIMIZATION
           0           0           1
           0           0           1
           0           0           1
           0           0           1
           0           0           1
           0           0           1
           0           0           1
           0           0           1
           0           0           1
           0           0           1
           0           0           1
           0           0           1
           0           0           1
           0           0           1
           0           0           1
           0           0           1
           0           0           1
           0           0           1
           0           0           1
           0           0           1
           0           0           1
           0           0           1
%END BLOCK ION_OPTIMIZATION
