%BLOCK LATTICE_CART
   2.805799707700000   0.000000000000000   0.000000000000000
   1.402899853850000   2.429893824799152   0.000000000000000
   0.000000000000003   0.000000000000002  46.748533127708036
%END BLOCK LATTICE_CART
%BLOCK POSITIONS_FRAC
    Al   0.000000000000000   0.000000000000000   0.999936370301530
    Al   0.333333333300000   0.333333333300000   0.049842658976365
    Al   0.666666666700000   0.666666666700000   0.099745431613451
    Al   0.000000000000000   0.000000000000000   0.149644476513289
    Al   0.333333333300000   0.333333333300000   0.199569887070306
    Al   0.766666666700000   0.766666666700000   0.250421871037730
    Al   0.100000000000000   0.100000000000000   0.300339427403725
    Al   0.433333333300000   0.433333333300000   0.350220277443160
    Al   0.766666666700000   0.766666666700000   0.400095976612743
    Al   0.100000000000000   0.100000000000000   0.450000009283437
    Al   0.766666666700000   0.766666666700000   0.499904097241665
    Al   0.433333333300000   0.433333333300000   0.549779857882261
    Al   0.100000000000000   0.100000000000000   0.599660640504871
    Al   0.766666666700000   0.766666666700000   0.649578063924410
    Al   0.333333333300000   0.333333333300000   0.700429998075076
    Al   0.000000000000000   0.000000000000000   0.750355425890848
    Al   0.666666666700000   0.666666666700000   0.800254569466349
    Al   0.333333333300000   0.333333333300000   0.850157370097342
    Al   0.000000000000000   0.000000000000000   0.900063574470829
    Al   0.666666666700000   0.666666666700000   0.949999941927779
%END BLOCK POSITIONS_FRAC
%BLOCK SPECIES_POT
    Al al.lda.recpot                                                                          
%END BLOCK SPECIES_POT
%BLOCK ION_OPTIMIZATION
           0           0           1
           0           0           1
           0           0           1
           0           0           1
           0           0           1
           0           0           1
           0           0           1
           0           0           1
           0           0           1
           0           0           1
           0           0           1
           0           0           1
           0           0           1
           0           0           1
           0           0           1
           0           0           1
           0           0           1
           0           0           1
           0           0           1
           0           0           1
%END BLOCK ION_OPTIMIZATION
