%BLOCK LATTICE_CART
   2.807406101100000   0.000000000000000   0.000000000000000
   1.403703050550000   2.431285002292024   0.000000000000000
   0.000000000000003   0.000000000000002  50.717634448142505
%END BLOCK LATTICE_CART
%BLOCK POSITIONS_FRAC
    Al   0.000000000000000   0.000000000000000   0.000102376036707
    Al   0.333333333300000   0.333333333300000   0.045178871811313
    Al   0.666666666700000   0.666666666700000   0.090414161292347
    Al   0.000000000000000   0.000000000000000   0.135424716450459
    Al   0.333333333300000   0.333333333300000   0.181181104056716
    Al   0.000000000000000   0.000000000000000   0.226560815279914
    Al   0.466666666700000   0.466666666700000   0.273685478061484
    Al   0.800000000000000   0.800000000000000   0.318582211833633
    Al   0.133333333300000   0.133333333300000   0.363970578350691
    Al   0.466666666700000   0.466666666700000   0.408991385225965
    Al   0.800000000000000   0.800000000000000   0.454545729168078
    Al   0.466666666700000   0.466666666700000   0.500100074203170
    Al   0.133333333300000   0.133333333300000   0.545120878256723
    Al   0.800000000000000   0.800000000000000   0.590509196589516
    Al   0.466666666700000   0.466666666700000   0.635405842314240
    Al   0.000000000000000   0.000000000000000   0.682530341638497
    Al   0.333333333300000   0.333333333300000   0.727909892530152
    Al   0.000000000000000   0.000000000000000   0.773666062202470
    Al   0.666666666700000   0.666666666700000   0.818676443521123
    Al   0.333333333300000   0.333333333300000   0.863911553122395
    Al   0.000000000000000   0.000000000000000   0.908987934428771
    Al   0.666666666700000   0.666666666700000   0.954545128187278
%END BLOCK POSITIONS_FRAC
%BLOCK SPECIES_POT
    Al al.lda.recpot                                                                          
%END BLOCK SPECIES_POT
%BLOCK ION_OPTIMIZATION
           0           0           1
           0           0           1
           0           0           1
           0           0           1
           0           0           1
           0           0           1
           0           0           1
           0           0           1
           0           0           1
           0           0           1
           0           0           1
           0           0           1
           0           0           1
           0           0           1
           0           0           1
           0           0           1
           0           0           1
           0           0           1
           0           0           1
           0           0           1
           0           0           1
           0           0           1
%END BLOCK ION_OPTIMIZATION
