ATOMIC_SPECIES
Si 14 si.lda.lps blps

LATTICE_CONSTANT
10.220303457786414  // add lattice constant

LATTICE_VECTORS
0.500000000000    0.500000000000    0.000000000000    
-0.500000000000    0.500000000000    0.000000000000    
0.000000000000    0.000000000000    4.000000000000    

ATOMIC_POSITIONS
Direct

Si
0.0
9
    0.000000000000    0.000000000000    0.000000000000 1 1 1
    0.500000000000    0.000000000000    0.062500000000 1 1 1
    0.5 0.5 0.125 1 1 1
    0.0 0.5 0.1875 1 1 1
    0.0 0.0 0.25 1 1 1
    0.5 0.0 0.3125 1 1 1
    0.5 0.5 0.375 1 1 1
    0.0 0.5 0.4375 1 1 1
    0.0 0.0 0.5 1 1 1
