%BLOCK LATTICE_CART
2.010304893461    -3.481950214178    0.000000000000    
2.010304893461    3.481950214178    0.000000000000    
0.000000000000    0.000000000000    6.607741970426    
%END BLOCK LATTICE_CART
%BLOCK POSITIONS_FRAC
Al    0.333333333333    0.666666666667    0.000683000000
Al    0.666666666667    0.333333333333    0.500683000000
As    0.333333333333    0.666666666667    0.375317000000
As    0.666666666667    0.333333333333    0.875317000000
%END BLOCK POSITIONS_FRAC
%BLOCK SPECIES_POT
Al al.gga.recpot
As as.gga.recpot
%END BLOCK SPECIES_POT
