%BLOCK LATTICE_CART
2.234000948870    -3.869403147600    0.000000000000    
2.234000948870    3.869403147600    0.000000000000    
0.000000000000    0.000000000000    8.604099000000    
%END BLOCK LATTICE_CART
%BLOCK POSITIONS_FRAC
Li    0.666666666667    0.333333333333    0.416381000000
Li    0.333333333333    0.666666666667    0.583619000000
Li    0.333333333333    0.666666666667    0.916381000000
Li    0.666666666667    0.333333333333    0.083619000000
Al    0.000000000000    0.000000000000    0.250000000000
Al    0.000000000000    0.000000000000    0.750000000000
Al    0.666666666667    0.333333333333    0.750000000000
Al    0.333333333333    0.666666666667    0.250000000000
%END BLOCK POSITIONS_FRAC
%BLOCK SPECIES_POT
Li li.gga.recpot
Al al.gga.recpot
%END BLOCK SPECIES_POT
