ATOMIC_SPECIES
Si 14 si.gga.psp blps

LATTICE_CONSTANT
5.363770821059309  // add lattice constant

LATTICE_VECTORS
1.000000000000    0.000000000000    0.000000000000    
-0.500000000000    0.866025403784    0.000000000000    
0.000000000000    0.000000000000    1.592707288610    

ATOMIC_POSITIONS
Direct

Si
0.0
2
    0.000000000000    0.000000000000    0.000000000000 1 1 1
    0.666666666667    0.333333333333    0.500000000000 1 1 1
