%BLOCK LATTICE_CART
3.066027301918    0.000000000000    0.000000000000    
-1.533013650959    2.655257532158    0.000000000000    
0.000000000000    0.000000000000    4.978794886818    
%END BLOCK LATTICE_CART
%BLOCK POSITIONS_FRAC
Mg    0.000000000000    0.000000000000    0.000000000000
Mg    0.666666666667    0.333333333333    0.500000000000
%END BLOCK POSITIONS_FRAC
%BLOCK SPECIES_POT
Mg mg.lda.recpot
%END BLOCK SPECIES_POT
