ATOMIC_SPECIES
In 115 /home/mhchen_pkuhpc/mhchen_cls/lustre2/5_liurenxi/03a01_abacus-lcao-scan/pp/SG15_ONCV_v1.0_upf/In_ONCV_PBE-1.0.upf
Sb 122 /home/mhchen_pkuhpc/mhchen_cls/lustre2/5_liurenxi/03a01_abacus-lcao-scan/pp/SG15_ONCV_v1.0_upf/Sb_ONCV_PBE-1.0.upf

LATTICE_CONSTANT
12.4721266866

LATTICE_VECTORS
0.5 0.5 0.000000
0.5 0.000000 0.5
0.000000 0.5 0.5

NUMERICAL_ORBITAL
/home/mhchen_pkuhpc/mhchen_cls/lustre2/5_liurenxi/03a01_abacus-lcao-scan/orb/Orb_DZP_E100_Full/In/In_gga_9au_100Ry_2s2p2d1f.orb
/home/mhchen_pkuhpc/mhchen_cls/lustre2/5_liurenxi/03a01_abacus-lcao-scan/orb/Orb_DZP_E100_Full/Sb/Sb_gga_9au_100Ry_2s2p2d1f.orb
#/home/mhchen_pkuhpc/mhchen_cls/lustre2/5_liurenxi/03a01_abacus-lcao-scan/orb/Orb_TZDP_E100_Full/In/In_gga_9au_100Ry_3s3p3d2f.orb
#/home/mhchen_pkuhpc/mhchen_cls/lustre2/5_liurenxi/03a01_abacus-lcao-scan/orb/Orb_TZDP_E100_Full/Sb/Sb_gga_9au_100Ry_3s3p3d2f.orb


ATOMIC_POSITIONS
Cartesian    # Cartesian(Unit is LATTICE_CONSTANT)
In
0.0
1
0.000000 0.000000 0.000000 m 0 0 0
Sb
0.0
1
0.250000 0.250000 0.250000 m 0 0 0