ATOMIC_SPECIES
Li 6.941 li.gga.psp.1 blps
Mg 24.305 mg.gga.psp blps

LATTICE_CONSTANT
1.8897259885789233  // add lattice constant

LATTICE_VECTORS
1.554248758728    -2.692037817718    0.000000000000    
1.554248758728    2.692037817718    0.000000000000    
0.000000000000    0.000000000000    5.025467680000    

ATOMIC_POSITIONS
Direct

Li
0.0
1
    0.000000000000    0.000000000000    0.000000000000 1 1 1
Mg
0.0
1
    0.666666666667    0.333333333333    0.500000000000 1 1 1
