ATOMIC_SPECIES
Li 6.941 li.gga.psp.1 blps
Al 26.981 al.gga.psp blps

LATTICE_CONSTANT
1.8897259885789233  // add lattice constant

LATTICE_VECTORS
4.448272466876    0.000000000000    0.000000000000    
-0.006388076568    5.362804161118    0.000000000000    
-2.189181431996    -2.505972131766    8.991965333091    

ATOMIC_POSITIONS
Direct

Li
0.0
9
    0.231328140000    0.841431620000    0.465033920000 1 1 1
    0.308437330000    0.474828990000    0.615581310000 1 1 1
    0.691562670000    0.525171010000    0.384418690000 1 1 1
    0.543168270000    0.324780520000    0.087600980000 1 1 1
    0.768671860000    0.158568380000    0.534966080000 1 1 1
    0.456831730000    0.675219480000    0.912399020000 1 1 1
    0.000000000000    0.000000000000    0.000000000000 1 1 1
    0.914357080000    0.359080670000    0.830040720000 1 1 1
    0.085642920000    0.640919330000    0.169959280000 1 1 1
Al
0.0
4
    0.614394290000    0.935100920000    0.229000790000 1 1 1
    0.385605710000    0.064899080000    0.770999210000 1 1 1
    0.149930270000    0.214628580000    0.301033450000 1 1 1
    0.850069730000    0.785371420000    0.698966550000 1 1 1
