ATOMIC_SPECIES
Li 6.941 li.gga.psp.1 blps
Al 26.981 al.gga.psp blps

LATTICE_CONSTANT
1.8897259885789233  // add lattice constant

LATTICE_VECTORS
4.584582270000    0.000000000000    0.000000000000    
0.000000000000    9.666479240000    0.000000000000    
0.000000000000    0.000000000000    4.430897060000    

ATOMIC_POSITIONS
Direct

Li
0.0
8
    0.500000000000    0.258607495000    0.250000000000 1 1 1
    0.000000000000    0.241392505000    0.750000000000 1 1 1
    0.000000000000    0.410138190000    0.250000000000 1 1 1
    0.500000000000    0.089861810000    0.750000000000 1 1 1
    0.000000000000    0.758607495000    0.250000000000 1 1 1
    0.500000000000    0.741392505000    0.750000000000 1 1 1
    0.500000000000    0.910138190000    0.250000000000 1 1 1
    0.000000000000    0.589861810000    0.750000000000 1 1 1
Al
0.0
4
    0.000000000000    0.074982040000    0.250000000000 1 1 1
    0.500000000000    0.425017960000    0.750000000000 1 1 1
    0.500000000000    0.574982040000    0.250000000000 1 1 1
    0.000000000000    0.925017960000    0.750000000000 1 1 1
