%BLOCK LATTICE_CART
   2.812387583300000   0.000000000000000   0.000000000000000
   1.406193791650000   2.435599092425724   0.000000000000000
   0.000000000000003   0.000000000000002  50.713518616055985
%END BLOCK LATTICE_CART
%BLOCK POSITIONS_FRAC
    Al   0.000000000000000   0.000000000000000   0.000008816622868
    Al   0.333333333300000   0.333333333300000   0.045171544394387
    Al   0.666666666700000   0.666666666700000   0.090381262060495
    Al   0.000000000000000   0.000000000000000   0.135531179871174
    Al   0.333333333300000   0.333333333300000   0.181049123475949
    Al   0.000000000000000   0.000000000000000   0.226355282867792
    Al   0.533333333300000   0.533333333300000   0.273617669820327
    Al   0.866666666700000   0.866666666700000   0.318710650632984
    Al   0.200000000000000   0.200000000000000   0.363924196526449
    Al   0.533333333300000   0.533333333300000   0.409069099184930
    Al   0.866666666700000   0.866666666700000   0.454545456466899
    Al   0.533333333300000   0.533333333300000   0.500021838723974
    Al   0.200000000000000   0.200000000000000   0.545166777301654
    Al   0.866666666700000   0.866666666700000   0.590380391333556
    Al   0.533333333300000   0.533333333300000   0.635473388932877
    Al   1.000000000000000   1.000000000000000   0.682735777725898
    Al   0.333333333300000   0.333333333300000   0.728041949560761
    Al   0.000000000000000   0.000000000000000   0.773559869968015
    Al   0.666666666700000   0.666666666700000   0.818709752416655
    Al   0.333333333300000   0.333333333300000   0.863919400230998
    Al   0.000000000000000   0.000000000000000   0.909082076955705
    Al   0.666666666700000   0.666666666700000   0.954545432905094
%END BLOCK POSITIONS_FRAC
%BLOCK SPECIES_POT
    Al al.lda.recpot                                                                          
%END BLOCK SPECIES_POT
%BLOCK ION_OPTIMIZATION
           0           0           1
           0           0           1
           0           0           1
           0           0           1
           0           0           1
           0           0           1
           0           0           1
           0           0           1
           0           0           1
           0           0           1
           0           0           1
           0           0           1
           0           0           1
           0           0           1
           0           0           1
           0           0           1
           0           0           1
           0           0           1
           0           0           1
           0           0           1
           0           0           1
           0           0           1
%END BLOCK ION_OPTIMIZATION
