%BLOCK LATTICE_CART
  -1.491817199942958   1.946540285502971   1.302140373753144
   1.458297812257178  -1.745352485822901   1.593506237006770
   1.301373417364724   2.055887741342333  -1.583397231816900
%END BLOCK LATTICE_CART
%BLOCK POSITIONS_FRAC
    Al   0.000000000000000   0.000000000000000   0.000000000000000
%END BLOCK POSITIONS_FRAC
%BLOCK SPECIES_POT
    Al al.lda.recpot                                                                          
%END BLOCK SPECIES_POT
