%BLOCK LATTICE_CART
2.186152620004    -3.786527410946    0.000000000000    
2.186152620004    3.786527410946    0.000000000000    
0.000000000000    0.000000000000    7.192947446564    
%END BLOCK LATTICE_CART
%BLOCK POSITIONS_FRAC
Al    0.666666666667    0.333333333333    0.500378270000
Al    0.333333333333    0.666666666667    0.000378270000
Sb    0.666666666667    0.333333333333    0.874721730000
Sb    0.333333333333    0.666666666667    0.374721730000
%END BLOCK POSITIONS_FRAC
%BLOCK SPECIES_POT
Al al.gga.recpot
Sb sb.gga.recpot
%END BLOCK SPECIES_POT
