%BLOCK LATTICE_CART
-2.18520913431948 2.18520913431948 1.1921193735263953
2.18520913431948 -2.18520913431948 1.1921193735263953
2.18520913431948 2.18520913431948 -1.1921193735263953
%END BLOCK LATTICE_CART
%BLOCK POSITIONS_FRAC
Si 0 0 0
Si 0.75 0.25 0.5
%END BLOCK POSITIONS_FRAC
%BLOCK SPECIES_POT
Si si.lda.recpot
%END BLOCK SPECIES_POT
