%BLOCK LATTICE_CART
   2.805799707700000   0.000000000000000   0.000000000000000
   1.402899853850000   2.429893824799152   0.000000000000000
   0.000000000000003   0.000000000000002  46.024468918817348
%END BLOCK LATTICE_CART
%BLOCK POSITIONS_FRAC
    Al   0.000000000000000   0.000000000000000   0.000018562533925
    Al   0.333333333300000   0.333333333300000   0.049782228043754
    Al   0.666666666700000   0.666666666700000   0.099494382795415
    Al   0.000000000000000   0.000000000000000   0.149235424328171
    Al   0.333333333300000   0.333333333300000   0.199216763372428
    Al   0.866666666700000   0.866666666700000   0.250763007561998
    Al   0.200000000000000   0.200000000000000   0.300705685854435
    Al   0.533333333300000   0.533333333300000   0.350369707123756
    Al   0.866666666700000   0.866666666700000   0.400043583648571
    Al   0.200000000000000   0.200000000000000   0.450000254620702
    Al   0.866666666700000   0.866666666700000   0.499956932315013
    Al   0.533333333300000   0.533333333300000   0.549630754541242
    Al   0.200000000000000   0.200000000000000   0.599294619702316
    Al   0.866666666700000   0.866666666700000   0.649237104555061
    Al   0.333333333300000   0.333333333300000   0.700783176222314
    Al   0.000000000000000   0.000000000000000   0.750764365758123
    Al   0.666666666700000   0.666666666700000   0.800505313115353
    Al   0.333333333300000   0.333333333300000   0.850217388614076
    Al   0.000000000000000   0.000000000000000   0.899980952289815
    Al   0.666666666700000   0.666666666700000   0.949999729721215
%END BLOCK POSITIONS_FRAC
%BLOCK SPECIES_POT
    Al al_HC.lda.recpot                                                                       
%END BLOCK SPECIES_POT
%BLOCK ION_OPTIMIZATION
           0           0           1
           0           0           1
           0           0           1
           0           0           1
           0           0           1
           0           0           1
           0           0           1
           0           0           1
           0           0           1
           0           0           1
           0           0           1
           0           0           1
           0           0           1
           0           0           1
           0           0           1
           0           0           1
           0           0           1
           0           0           1
           0           0           1
           0           0           1
%END BLOCK ION_OPTIMIZATION
