%BLOCK LATTICE_CART
   2.807406101100000   0.000000000000000   0.000000000000000
   1.403703050550000   2.431285002292024   0.000000000000000
   0.000000000000003   0.000000000000002  46.028137972743799
%END BLOCK LATTICE_CART
%BLOCK POSITIONS_FRAC
    Al   0.000000000000000   0.000000000000000   0.000188533601137
    Al   0.333333333300000   0.333333333300000   0.049891960916419
    Al   0.666666666700000   0.666666666700000   0.099676010541384
    Al   0.000000000000000   0.000000000000000   0.149442613988904
    Al   0.333333333300000   0.333333333300000   0.199488762202109
    Al   0.966666666700000   0.966666666700000   0.250404669236858
    Al   0.300000000000000   0.300000000000000   0.300408083453030
    Al   0.633333333300000   0.633333333300000   0.350209899732827
    Al   0.966666666700000   0.966666666700000   0.399864038103978
    Al   0.300000000000000   0.300000000000000   0.449999901390809
    Al   0.966666666700000   0.966666666700000   0.500135815573728
    Al   0.633333333300000   0.633333333300000   0.549790025540425
    Al   0.300000000000000   0.300000000000000   0.599591841670537
    Al   0.966666666700000   0.966666666700000   0.649595223400469
    Al   0.333333333300000   0.333333333300000   0.700511146654945
    Al   0.000000000000000   0.000000000000000   0.750557357439545
    Al   0.666666666700000   0.666666666700000   0.800324071277711
    Al   0.333333333300000   0.333333333300000   0.850108176014486
    Al   0.000000000000000   0.000000000000000   0.899811563311412
    Al   0.666666666700000   0.666666666700000   0.950000031686156
%END BLOCK POSITIONS_FRAC
%BLOCK SPECIES_POT
    Al al.lda.recpot                                                                          
%END BLOCK SPECIES_POT
%BLOCK ION_OPTIMIZATION
           0           0           1
           0           0           1
           0           0           1
           0           0           1
           0           0           1
           0           0           1
           0           0           1
           0           0           1
           0           0           1
           0           0           1
           0           0           1
           0           0           1
           0           0           1
           0           0           1
           0           0           1
           0           0           1
           0           0           1
           0           0           1
           0           0           1
           0           0           1
%END BLOCK ION_OPTIMIZATION
