%BLOCK LATTICE_CART
-2.470236412708977 2.470236412708977 1.347613204855925
2.470236412708977 -2.470236412708977 1.347613204855925
2.470236412708977 2.470236412708977 -1.347613204855925
%END BLOCK LATTICE_CART
%BLOCK POSITIONS_FRAC
Si 0 0 0
Si 0.75 0.25 0.5
%END BLOCK POSITIONS_FRAC
%BLOCK SPECIES_POT
Si si.lda.recpot
%END BLOCK SPECIES_POT
