%BLOCK LATTICE_CART
1.554248758728    -2.692037817718    0.000000000000    
1.554248758728    2.692037817718    0.000000000000    
0.000000000000    0.000000000000    5.025467680000    
%END BLOCK LATTICE_CART
%BLOCK POSITIONS_FRAC
Li    0.000000000000    0.000000000000    0.000000000000
Mg    0.666666666667    0.333333333333    0.500000000000
%END BLOCK POSITIONS_FRAC
%BLOCK SPECIES_POT
Li li.gga.recpot
Mg mg.gga.recpot
%END BLOCK SPECIES_POT
