ATOMIC_SPECIES
Al  Al_mass  Al_pesudopotential
As  As_mass  As_pesudopotential
H  H_mass  H_pesudopotential
O  O_mass  O_pesudopotential

NUMERICAL_ORBITAL
Al_orbital
As_orbital
H_orbital
O_orbital

LATTICE_CONSTANT
1.889727000000

LATTICE_VECTORS
16.228394530871  0.000000000000  0.000000000000
0.000000000000  17.212811730802  0.000000000000
0.000000000000  0.000000000000  30.388122000006

ATOMIC_POSITIONS
Direct

Al
0
60
0.000122937516  0.024690403172  0.013112850204  0  0  0
0.000458909530  0.357873862969  0.013155529050  0  0  0
0.497608891701  0.670890343028  0.001233843311  0  0  0
0.249926613096  0.024242405584  0.013212513974  0  0  0
0.250290218625  0.358721231552  0.012728032134  0  0  0
0.750093683667  0.689947393489  0.012812965033  0  0  0
0.374979733441  0.163646169289  0.061218374286  0  0  0
0.376639689937  0.497964763900  0.061936192377  0  0  0
0.874654421169  0.830595994901  0.061369136523  0  0  0
0.125374187791  0.163816761627  0.061225464896  0  0  0
0.125279891947  0.497406581153  0.061416191038  0  0  0
0.624415182593  0.830417953239  0.061417223291  0  0  0
0.000000000000  0.000000000000  0.130439996605  0  0  0
0.000000000000  0.333330005400  0.130439996605  0  0  0
0.500000000025  0.666670024140  0.130439996605  0  0  0
0.249999999980  0.000000000000  0.130439996605  0  0  0
0.249999999980  0.333330005400  0.130439996605  0  0  0
0.750000000266  0.666670024140  0.130439996605  0  0  0
0.374976591982  0.163659871321  0.199648430029  0  0  0
0.376692429502  0.498032441395  0.198952988775  0  0  0
0.874663910643  0.830599296413  0.199510489727  0  0  0
0.125366646816  0.163833528592  0.199642257397  0  0  0
0.125318721451  0.497475386270  0.199452147972  0  0  0
0.624433842790  0.830368955583  0.199506690476  0  0  0
0.000125986147  0.024706321198  0.247759905321  0  0  0
0.000453197138  0.357923993841  0.247700198201  0  0  0
0.497726346754  0.671065719363  0.259844217479  0  0  0
0.249930497223  0.024247183422  0.247653682413  0  0  0
0.250291549160  0.358752134466  0.248136191953  0  0  0
0.750005515034  0.690059752548  0.248112313347  0  0  0
0.374830154012  0.092944393356  0.989805039565  0  0  0
0.376617919813  0.426550327881  0.990260241642  0  0  0
0.874263986376  0.759692063124  0.989896558785  0  0  0
0.125153581887  0.093075433617  0.989792116736  0  0  0
0.125153496437  0.426949501433  0.989766501009  0  0  0
0.622738150017  0.755580850462  0.991810955876  0  0  0
0.000297098032  0.247702856638  0.064022676627  0  0  0
0.999841672266  0.581117012585  0.063978125049  0  0  0
0.499540814227  0.914300312082  0.063904044611  0  0  0
0.250373211547  0.248335013154  0.063740330983  0  0  0
0.250140439830  0.581151412749  0.063853035690  0  0  0
0.749587713852  0.914388991527  0.063954787914  0  0  0
0.375000000004  0.083329997984  0.130439996605  0  0  0
0.375000000004  0.416669994571  0.130439996605  0  0  0
0.875000000095  0.749999999849  0.130439996605  0  0  0
0.125000000022  0.083329997984  0.130439996605  0  0  0
0.125000000022  0.416669994571  0.130439996605  0  0  0
0.624999999984  0.749999999849  0.130439996605  0  0  0
0.000291392464  0.247714706594  0.196859709774  0  0  0
0.999853971196  0.581154868942  0.196912083217  0  0  0
0.499576657327  0.914284384715  0.196973908607  0  0  0
0.250366545245  0.248340004259  0.197141527721  0  0  0
0.250196776382  0.581240105209  0.197067590751  0  0  0
0.749587868861  0.914374628024  0.196924449853  0  0  0
0.374834672200  0.092945373705  0.271076412331  0  0  0
0.376609940806  0.426567903957  0.270634575042  0  0  0
0.874283564268  0.759719675574  0.271000781709  0  0  0
0.125161759347  0.093084012784  0.271088178836  0  0  0
0.125155049282  0.426979543362  0.271103460944  0  0  0
0.622778999051  0.755826415615  0.269253307149  0  0  0

As
0
60
0.580869067766  0.680905053413  0.382716031633  0  0  0
0.678621080414  0.730838207652  0.345042841041  0  0  0
0.506682506411  0.637752961817  0.345428045681  0  0  0
0.435212840193  0.814087741171  0.335180395172  0  0  0
0.464415037421  0.561850718630  0.309954981615  0  0  0
0.580271103928  0.681015006077  0.878446531156  0  0  0
0.678385755302  0.730755586706  0.916069326425  0  0  0
0.506136359198  0.637901405053  0.915723836579  0  0  0
0.436214352349  0.814565756863  0.926987348774  0  0  0
0.464045847689  0.561757271704  0.951152992528  0  0  0
0.678947558196  0.706357132646  0.374567721044  0  0  0
0.483337308572  0.818108457609  0.355310569645  0  0  0
0.678702727545  0.706257747246  0.886540749259  0  0  0
0.484644703352  0.818409800774  0.907035130969  0  0  0
0.484644703352  0.818409800774  0.907035130969  0  0  0
0.484644703352  0.818409800774  0.907035130969  0  0  0
0.484644703352  0.818409800774  0.907035130969  0  0  0
0.484644703352  0.818409800774  0.907035130969  0  0  0
0.484644703352  0.818409800774  0.907035130969  0  0  0
0.484644703352  0.818409800774  0.907035130969  0  0  0
0.484644703352  0.818409800774  0.907035130969  0  0  0
0.484644703352  0.818409800774  0.907035130969  0  0  0
0.484644703352  0.818409800774  0.907035130969  0  0  0
0.484644703352  0.818409800774  0.907035130969  0  0  0
0.484644703352  0.818409800774  0.907035130969  0  0  0
0.484644703352  0.818409800774  0.907035130969  0  0  0
0.484644703352  0.818409800774  0.907035130969  0  0  0
0.484644703352  0.818409800774  0.907035130969  0  0  0
0.484644703352  0.818409800774  0.907035130969  0  0  0
0.484644703352  0.818409800774  0.907035130969  0  0  0
0.484644703352  0.818409800774  0.907035130969  0  0  0
0.484644703352  0.818409800774  0.907035130969  0  0  0
0.484644703352  0.818409800774  0.907035130969  0  0  0
0.484644703352  0.818409800774  0.907035130969  0  0  0
0.484644703352  0.818409800774  0.907035130969  0  0  0
0.484644703352  0.818409800774  0.907035130969  0  0  0
0.484644703352  0.818409800774  0.907035130969  0  0  0
0.484644703352  0.818409800774  0.907035130969  0  0  0
0.484644703352  0.818409800774  0.907035130969  0  0  0
0.484644703352  0.818409800774  0.907035130969  0  0  0
0.484644703352  0.818409800774  0.907035130969  0  0  0
0.484644703352  0.818409800774  0.907035130969  0  0  0
0.484644703352  0.818409800774  0.907035130969  0  0  0
0.484644703352  0.818409800774  0.907035130969  0  0  0
0.484644703352  0.818409800774  0.907035130969  0  0  0
0.484644703352  0.818409800774  0.907035130969  0  0  0
0.484644703352  0.818409800774  0.907035130969  0  0  0
0.484644703352  0.818409800774  0.907035130969  0  0  0
0.484644703352  0.818409800774  0.907035130969  0  0  0
0.484644703352  0.818409800774  0.907035130969  0  0  0
0.484644703352  0.818409800774  0.907035130969  0  0  0
0.484644703352  0.818409800774  0.907035130969  0  0  0
0.484644703352  0.818409800774  0.907035130969  0  0  0
0.484644703352  0.818409800774  0.907035130969  0  0  0
0.484644703352  0.818409800774  0.907035130969  0  0  0
0.484644703352  0.818409800774  0.907035130969  0  0  0
0.484644703352  0.818409800774  0.907035130969  0  0  0
0.484644703352  0.818409800774  0.907035130969  0  0  0
0.484644703352  0.818409800774  0.907035130969  0  0  0
0.484644703352  0.818409800774  0.907035130969  0  0  0

H
0
20
0.484644703352  0.818409800774  0.907035130969  0  0  0
0.484644703352  0.818409800774  0.907035130969  0  0  0
0.484644703352  0.818409800774  0.907035130969  0  0  0
0.484644703352  0.818409800774  0.907035130969  0  0  0
0.484644703352  0.818409800774  0.907035130969  0  0  0
0.484644703352  0.818409800774  0.907035130969  0  0  0
0.484644703352  0.818409800774  0.907035130969  0  0  0
0.484644703352  0.818409800774  0.907035130969  0  0  0
0.484644703352  0.818409800774  0.907035130969  0  0  0
0.484644703352  0.818409800774  0.907035130969  0  0  0
0.484644703352  0.818409800774  0.907035130969  0  0  0
0.484644703352  0.818409800774  0.907035130969  0  0  0
0.484644703352  0.818409800774  0.907035130969  0  0  0
0.484644703352  0.818409800774  0.907035130969  0  0  0
0.484644703352  0.818409800774  0.907035130969  0  0  0
0.484644703352  0.818409800774  0.907035130969  0  0  0
0.484644703352  0.818409800774  0.907035130969  0  0  0
0.484644703352  0.818409800774  0.907035130969  0  0  0
0.484644703352  0.818409800774  0.907035130969  0  0  0
0.484644703352  0.818409800774  0.907035130969  0  0  0

O
0
8
0.484644703352  0.818409800774  0.907035130969  0  0  0
0.484644703352  0.818409800774  0.907035130969  0  0  0
0.484644703352  0.818409800774  0.907035130969  0  0  0
0.484644703352  0.818409800774  0.907035130969  0  0  0
0.484644703352  0.818409800774  0.907035130969  0  0  0
0.484644703352  0.818409800774  0.907035130969  0  0  0
0.484644703352  0.818409800774  0.907035130969  0  0  0
0.484644703352  0.818409800774  0.907035130969  0  0  0
