ATOMIC_SPECIES
Al  Al_mass  Al_pesudopotential
As  As_mass  As_pesudopotential
H  H_mass  H_pesudopotential
O  O_mass  O_pesudopotential

NUMERICAL_ORBITAL
Al_orbital
As_orbital
H_orbital
O_orbital

LATTICE_CONSTANT
1.889727000000

LATTICE_VECTORS
16.228394530871  0.000000000000  0.000000000000
0.000000000000  17.212811730802  0.000000000000
0.000000000000  0.000000000000  30.388122000006

ATOMIC_POSITIONS
Direct

Al
0
60
0.000352908222  0.026374605501  0.013956510919  0  0  0
0.001403645654  0.357968170260  0.013504277712  0  0  0
0.494276870446  0.670610874598  0.007897997925  0  0  0
0.250298776394  0.027235211695  0.013921468891  0  0  0
0.248183985927  0.363525433608  0.011974816691  0  0  0
0.752045936499  0.691589555990  0.014721113230  0  0  0
0.378816655586  0.167061070453  0.061857103968  0  0  0
0.375272733889  0.489535335517  0.060145378346  0  0  0
0.874631550869  0.830658272408  0.061334245558  0  0  0
0.127099508387  0.164986818697  0.061192683836  0  0  0
0.125005137789  0.496436000391  0.061200096152  0  0  0
0.623463516495  0.831306960491  0.061454905288  0  0  0
0.000000000000  0.000000000000  0.130439996605  0  0  0
0.000000000000  0.333330005400  0.130439996605  0  0  0
0.500000000025  0.666670024140  0.130439996605  0  0  0
0.249999999980  0.000000000000  0.130439996605  0  0  0
0.249999999980  0.333330005400  0.130439996605  0  0  0
0.750000000266  0.666670024140  0.130439996605  0  0  0
0.378782413547  0.167006484985  0.199052798368  0  0  0
0.375265656076  0.489556198286  0.200732330204  0  0  0
0.874659209380  0.830665090998  0.199557847833  0  0  0
0.127105077257  0.164967473762  0.199706920152  0  0  0
0.125026672127  0.496465851594  0.199680500461  0  0  0
0.623513770698  0.831412212402  0.199368820712  0  0  0
0.000360279072  0.026391023791  0.246993906051  0  0  0
0.001446446825  0.357957193458  0.247396139463  0  0  0
0.494246571984  0.670823561490  0.252854480999  0  0  0
0.250291759926  0.027277088906  0.247019590172  0  0  0
0.248219377044  0.363539552562  0.248903520692  0  0  0
0.752162301485  0.691645365979  0.246133677625  0  0  0
0.374683551337  0.095777632464  0.989895917051  0  0  0
0.375819259478  0.422953000735  0.987469490763  0  0  0
0.874123333588  0.760234271596  0.989345412730  0  0  0
0.124980391564  0.093851645199  0.989754362356  0  0  0
0.122251147322  0.428755054994  0.988763710499  0  0  0
0.620073185374  0.750411496043  0.992028411908  0  0  0
0.000336073225  0.247686986967  0.064261687635  0  0  0
0.999828218677  0.581135744124  0.064350189836  0  0  0
0.499266101971  0.915401906579  0.063180356455  0  0  0
0.251408317412  0.250837893562  0.062952569740  0  0  0
0.251602941232  0.578650328222  0.064388597439  0  0  0
0.749272539525  0.914212193692  0.063445311021  0  0  0
0.375000000004  0.083329997984  0.130439996605  0  0  0
0.375000000004  0.416669994571  0.130439996605  0  0  0
0.875000000095  0.749999999849  0.130439996605  0  0  0
0.125000000022  0.083329997984  0.130439996605  0  0  0
0.125000000022  0.416669994571  0.130439996605  0  0  0
0.624999999984  0.749999999849  0.130439996605  0  0  0
0.000347077430  0.247680816319  0.196635186599  0  0  0
0.999850013643  0.581172444944  0.196558703561  0  0  0
0.499277503096  0.915474903673  0.197715072696  0  0  0
0.251413797015  0.250833579021  0.197940811960  0  0  0
0.251619017107  0.578714892275  0.196536784500  0  0  0
0.749327787158  0.914277925929  0.197462198692  0  0  0
0.374684431572  0.095808819885  0.271053617211  0  0  0
0.375844188822  0.422997867972  0.273424192501  0  0  0
0.874180416133  0.760276065636  0.271572220832  0  0  0
0.124979888865  0.093900036644  0.271187101125  0  0  0
0.122288500827  0.428766350303  0.272112870323  0  0  0
0.620157453593  0.750450138434  0.268740145915  0  0  0

As
0
60
0.572610517025  0.681768389148  0.380187683251  0  0  0
0.671213305513  0.713950868712  0.341371831919  0  0  0
0.491536528836  0.643540566542  0.357931503177  0  0  0
0.436738803590  0.805839968760  0.326363073301  0  0  0
0.439176528260  0.546455059433  0.298551795099  0  0  0
0.573513311156  0.679762872773  0.880351956970  0  0  0
0.671416014132  0.713977370547  0.919495120574  0  0  0
0.492853231079  0.640625517499  0.902491613819  0  0  0
0.436109449229  0.803211917916  0.933728124960  0  0  0
0.439389547801  0.546032898555  0.962170081889  0  0  0
0.666150858335  0.687308876386  0.370418233529  0  0  0
0.485362543939  0.811602123055  0.347469200448  0  0  0
0.666955773990  0.687202093439  0.890460789382  0  0  0
0.484651406286  0.808669486915  0.912503481230  0  0  0
0.484651406286  0.808669486915  0.912503481230  0  0  0
0.484651406286  0.808669486915  0.912503481230  0  0  0
0.484651406286  0.808669486915  0.912503481230  0  0  0
0.484651406286  0.808669486915  0.912503481230  0  0  0
0.484651406286  0.808669486915  0.912503481230  0  0  0
0.484651406286  0.808669486915  0.912503481230  0  0  0
0.484651406286  0.808669486915  0.912503481230  0  0  0
0.484651406286  0.808669486915  0.912503481230  0  0  0
0.484651406286  0.808669486915  0.912503481230  0  0  0
0.484651406286  0.808669486915  0.912503481230  0  0  0
0.484651406286  0.808669486915  0.912503481230  0  0  0
0.484651406286  0.808669486915  0.912503481230  0  0  0
0.484651406286  0.808669486915  0.912503481230  0  0  0
0.484651406286  0.808669486915  0.912503481230  0  0  0
0.484651406286  0.808669486915  0.912503481230  0  0  0
0.484651406286  0.808669486915  0.912503481230  0  0  0
0.484651406286  0.808669486915  0.912503481230  0  0  0
0.484651406286  0.808669486915  0.912503481230  0  0  0
0.484651406286  0.808669486915  0.912503481230  0  0  0
0.484651406286  0.808669486915  0.912503481230  0  0  0
0.484651406286  0.808669486915  0.912503481230  0  0  0
0.484651406286  0.808669486915  0.912503481230  0  0  0
0.484651406286  0.808669486915  0.912503481230  0  0  0
0.484651406286  0.808669486915  0.912503481230  0  0  0
0.484651406286  0.808669486915  0.912503481230  0  0  0
0.484651406286  0.808669486915  0.912503481230  0  0  0
0.484651406286  0.808669486915  0.912503481230  0  0  0
0.484651406286  0.808669486915  0.912503481230  0  0  0
0.484651406286  0.808669486915  0.912503481230  0  0  0
0.484651406286  0.808669486915  0.912503481230  0  0  0
0.484651406286  0.808669486915  0.912503481230  0  0  0
0.484651406286  0.808669486915  0.912503481230  0  0  0
0.484651406286  0.808669486915  0.912503481230  0  0  0
0.484651406286  0.808669486915  0.912503481230  0  0  0
0.484651406286  0.808669486915  0.912503481230  0  0  0
0.484651406286  0.808669486915  0.912503481230  0  0  0
0.484651406286  0.808669486915  0.912503481230  0  0  0
0.484651406286  0.808669486915  0.912503481230  0  0  0
0.484651406286  0.808669486915  0.912503481230  0  0  0
0.484651406286  0.808669486915  0.912503481230  0  0  0
0.484651406286  0.808669486915  0.912503481230  0  0  0
0.484651406286  0.808669486915  0.912503481230  0  0  0
0.484651406286  0.808669486915  0.912503481230  0  0  0
0.484651406286  0.808669486915  0.912503481230  0  0  0
0.484651406286  0.808669486915  0.912503481230  0  0  0
0.484651406286  0.808669486915  0.912503481230  0  0  0

H
0
20
0.484651406286  0.808669486915  0.912503481230  0  0  0
0.484651406286  0.808669486915  0.912503481230  0  0  0
0.484651406286  0.808669486915  0.912503481230  0  0  0
0.484651406286  0.808669486915  0.912503481230  0  0  0
0.484651406286  0.808669486915  0.912503481230  0  0  0
0.484651406286  0.808669486915  0.912503481230  0  0  0
0.484651406286  0.808669486915  0.912503481230  0  0  0
0.484651406286  0.808669486915  0.912503481230  0  0  0
0.484651406286  0.808669486915  0.912503481230  0  0  0
0.484651406286  0.808669486915  0.912503481230  0  0  0
0.484651406286  0.808669486915  0.912503481230  0  0  0
0.484651406286  0.808669486915  0.912503481230  0  0  0
0.484651406286  0.808669486915  0.912503481230  0  0  0
0.484651406286  0.808669486915  0.912503481230  0  0  0
0.484651406286  0.808669486915  0.912503481230  0  0  0
0.484651406286  0.808669486915  0.912503481230  0  0  0
0.484651406286  0.808669486915  0.912503481230  0  0  0
0.484651406286  0.808669486915  0.912503481230  0  0  0
0.484651406286  0.808669486915  0.912503481230  0  0  0
0.484651406286  0.808669486915  0.912503481230  0  0  0

O
0
8
0.484651406286  0.808669486915  0.912503481230  0  0  0
0.484651406286  0.808669486915  0.912503481230  0  0  0
0.484651406286  0.808669486915  0.912503481230  0  0  0
0.484651406286  0.808669486915  0.912503481230  0  0  0
0.484651406286  0.808669486915  0.912503481230  0  0  0
0.484651406286  0.808669486915  0.912503481230  0  0  0
0.484651406286  0.808669486915  0.912503481230  0  0  0
0.484651406286  0.808669486915  0.912503481230  0  0  0
