ATOMIC_SPECIES
Al 26.981539 al.lda.lps

LATTICE_CONSTANT
7.50241114482312  // add lattice constant

LATTICE_VECTORS
0.707106781187    0.000000000000    0.000000000000    
0.353553390593    0.612372435696    0.000000000000    
0.000000000000    0.000000000000    12.701705922171765 

ATOMIC_POSITIONS
Direct

Al
0.0
22
    -1.7221164667E-31 -2.3891388038E-31  1.5807866626E-04 1 1 1
     3.3333333330E-01  3.3333333330E-01  4.5454549172E-02 1 1 1
     6.6666666670E-01  6.6666666670E-01  9.0974841024E-02 1 1 1
    -1.5891654825E-31 -2.2561878196E-31  1.3620797473E-01 1 1 1
     3.3333333330E-01  3.3333333330E-01  1.8168130962E-01 1 1 1
    -1.5853548346E-31 -2.2523771717E-31  2.2731749246E-01 1 1 1
     3.6666666670E-01  3.6666666670E-01  2.7292675749E-01 1 1 1
     7.0000000000E-01  7.0000000000E-01  3.1815081822E-01 1 1 1
     3.3333333300E-02  3.3333333300E-02  3.6364824735E-01 1 1 1
     3.6666666670E-01  3.6666666670E-01  4.0893216176E-01 1 1 1
     7.0000000000E-01  7.0000000000E-01  4.5454545455E-01 1 1 1
     3.6666666670E-01  3.6666666670E-01  5.0015874734E-01 1 1 1
     3.3333333300E-02  3.3333333300E-02  5.4544266175E-01 1 1 1
     7.0000000000E-01  7.0000000000E-01  5.9094009088E-01 1 1 1
     3.6666666670E-01  3.6666666670E-01  6.3616415161E-01 1 1 1
    -1.5853548346E-31 -2.2523771717E-31  6.8177341664E-01 1 1 1
     3.3333333330E-01  3.3333333330E-01  7.2740959948E-01 1 1 1
    -1.5891654825E-31 -2.2561878196E-31  7.7288293437E-01 1 1 1
     6.6666666670E-01  6.6666666670E-01  8.1811606808E-01 1 1 1
     3.3333333330E-01  3.3333333330E-01  8.6363635993E-01 1 1 1
    -1.7221164667E-31 -2.3891388038E-31  9.0893283043E-01 1 1 1
     6.6666666670E-01  6.6666666670E-01  9.5454545455E-01 1 1 1
