%BLOCK LATTICE_CART
  -0.000521517405461   2.004347257265942   2.004347229721461
   2.004347160398882  -0.000521588627200   2.004347204478247
   2.004347164307185   2.004347235931030  -0.000521561200988
%END BLOCK LATTICE_CART
%BLOCK POSITIONS_FRAC
    Al   0.000000000000000   0.000000000000000   0.000000000000000
%END BLOCK POSITIONS_FRAC
%BLOCK SPECIES_POT
    Al al.lda.recpot                                                                          
%END BLOCK SPECIES_POT
