ATOMIC_SPECIES
Al 27 al.lda.lps

LATTICE_CONSTANT
7.50241114482312  // add lattice constant

LATTICE_VECTORS
0.707106781187    0.000000000000    0.000000000000    
0.353553390593    0.612372435696    0.000000000000    
0.000000000000    0.000000000000    12.124355652982    

ATOMIC_POSITIONS
Direct

Al
0.0
21
    0.000000000000    0.000000000000    0.000000000000 0 0 1
    0.333333333333    0.333333333333    0.047619047619 0 0 1
    0.666666666667    0.666666666667    0.095238095238 0 0 1
    0.000000000000    0.000000000000    0.142857142857 0 0 1
    0.333333333333    0.333333333333    0.190476190476 0 0 1
    0.666666666667    0.666666666667    0.238095238095 0 0 1
    0.000000000000    0.000000000000    0.285714285714 0 0 1
    0.333333333333    0.333333333333    0.333333333333 0 0 1
    0.666666666667    0.666666666667    0.380952380952 0 0 1
    0.000000000000    0.000000000000    0.428571428571 0 0 1
    0.333333333333    0.333333333333    0.476190476190 0 0 1
    0.666666666667    0.666666666667    0.523809523810 0 0 1
    0.000000000000    0.000000000000    0.571428571429 0 0 1
    0.333333333333    0.333333333333    0.619047619048 0 0 1
    0.666666666667    0.666666666667    0.666666666667 0 0 1
    0.000000000000    0.000000000000    0.714285714286 0 0 1
    0.333333333333    0.333333333333    0.761904761905 0 0 1
    0.666666666667    0.666666666667    0.809523809524 0 0 1
    0.000000000000    0.000000000000    0.857142857143 0 0 1
    0.333333333333    0.333333333333    0.904761904762 0 0 1
    0.666666666667    0.666666666667    0.952380952381 0 0 1
