INPUT_PARAMETERS
#Parameters (1.General)
suffix			blpstest
calculation     scf
ntype			2
nbands			28
symmetry		1
pseudo_dir      /home/dell/2_software/g_pPROFESS/BLPSLibrary-master/GGA/real
pseudo_rcut     16

#Parameters (2.Iteration)
ecutwfc			45
scf_nmax			100
dft_functional  XC_GGA_X_PBE+XC_GGA_C_PBE


#Parameters (3.Basis)
basis_type		pw

#Parameters (4.Smearing)
smearing_method		gauss
smearing_sigma		0.0074

#Parameters (5.Mixing)
mixing_type		pulay
mixing_beta		0.7
