%BLOCK LATTICE_CART
  -1.748996174760861   1.748686130778348   1.748686201348818
   1.748686161994933  -1.748996139415838   1.748686165968632
   1.748686181734333   1.748686115137561  -1.748996159087669
%END BLOCK LATTICE_CART
%BLOCK POSITIONS_FRAC
    Mg   0.000000000000000   0.000000000000000   0.000000000000000
%END BLOCK POSITIONS_FRAC
%BLOCK SPECIES_POT
    Mg mg.lda.recpot                                                                          
%END BLOCK SPECIES_POT
