%BLOCK LATTICE_CART
0 2.8664265959003994 2.8664265959003994
2.8664265959003994 0 2.8664265959003994
2.8664265959003994 2.8664265959003994 0
%END BLOCK LATTICE_CART
%BLOCK POSITIONS_FRAC
Si 0 0 0
Si 0.25 0.25 0.25
%END BLOCK POSITIONS_FRAC
%BLOCK SPECIES_POT
Si si.lda.recpot
%END BLOCK SPECIES_POT
