%BLOCK LATTICE_CART
  -1.674982974209817   1.673925401549018   1.673936585605925
   1.673927495572879  -1.674975035909038   1.673928635261024
   1.673931073249460   1.673921028874299  -1.674978531167556
%END BLOCK LATTICE_CART
%BLOCK POSITIONS_FRAC
    Li   0.000000000000000   0.000000000000000   0.000000000000000
%END BLOCK POSITIONS_FRAC
%BLOCK SPECIES_POT
    Li li.lda.recpot                                                                          
%END BLOCK SPECIES_POT
