ATOMIC_SPECIES
Mg 24.305 mg.gga.psp blps
Al 26.981 al.gga.psp blps

LATTICE_CONSTANT
1.8897259885789233  // add lattice constant

LATTICE_VECTORS
2.720024349400    -4.711220370985    0.000000000000    
2.720024349400    4.711220370985    0.000000000000    
0.000000000000    0.000000000000    8.585342620000    

ATOMIC_POSITIONS
Direct

Mg
0.0
4
    0.333333333333    0.666666666667    0.063496340000 1 1 1
    0.666666666667    0.333333333333    0.563496340000 1 1 1
    0.666666666667    0.333333333333    0.936503660000 1 1 1
    0.333333333333    0.666666666667    0.436503660000 1 1 1
Al
0.0
8
    0.000000000000    0.000000000000    0.000000000000 1 1 1
    0.000000000000    0.000000000000    0.500000000000 1 1 1
    0.171334900000    0.342669800000    0.750000000000 1 1 1
    0.828665100000    0.171334900000    0.250000000000 1 1 1
    0.342669800000    0.171334900000    0.250000000000 1 1 1
    0.657330200000    0.828665100000    0.750000000000 1 1 1
    0.171334900000    0.828665100000    0.750000000000 1 1 1
    0.828665100000    0.657330200000    0.250000000000 1 1 1
