%BLOCK LATTICE_CART
   2.805799707700000   0.000000000000000   0.000000000000000
   1.402899853850000   2.429893824799152   0.000000000000000
   0.000000000000003   0.000000000000002  50.541029027891213
%END BLOCK LATTICE_CART
%BLOCK POSITIONS_FRAC
    Al   0.000000000000000   0.000000000000000   0.000058072980522
    Al   0.333333333300000   0.333333333300000   0.045336572097877
    Al   0.666666666700000   0.666666666700000   0.090587306535383
    Al   0.000000000000000   0.000000000000000   0.135922884859912
    Al   0.333333333300000   0.333333333300000   0.181465976043052
    Al   0.000000000000000   0.000000000000000   0.226997287255747
    Al   0.600000000000000   0.600000000000000   0.273101224956089
    Al   0.933333333300000   0.933333333300000   0.318558769762504
    Al   0.266666666700000   0.266666666700000   0.363808955611143
    Al   0.600000000000000   0.600000000000000   0.409058628240875
    Al   0.933333333300000   0.933333333300000   0.454546422929511
    Al   0.600000000000000   0.600000000000000   0.500034141360374
    Al   0.266666666700000   0.266666666700000   0.545283590403091
    Al   0.933333333300000   0.933333333300000   0.590533422922045
    Al   0.600000000000000   0.600000000000000   0.635990505902880
    Al   1.000000000000000   1.000000000000000   0.682093918645463
    Al   0.333333333300000   0.333333333300000   0.727624675018865
    Al   1.000000000000000   1.000000000000000   0.773167235123661
    Al   0.666666666700000   0.666666666700000   0.818502336602840
    Al   0.333333333300000   0.333333333300000   0.863752688415798
    Al   0.000000000000000   0.000000000000000   0.909030944476653
    Al   0.666666666700000   0.666666666700000   0.954544461740875
%END BLOCK POSITIONS_FRAC
%BLOCK SPECIES_POT
    Al al_HC.lda.recpot                                                                       
%END BLOCK SPECIES_POT
%BLOCK ION_OPTIMIZATION
           0           0           1
           0           0           1
           0           0           1
           0           0           1
           0           0           1
           0           0           1
           0           0           1
           0           0           1
           0           0           1
           0           0           1
           0           0           1
           0           0           1
           0           0           1
           0           0           1
           0           0           1
           0           0           1
           0           0           1
           0           0           1
           0           0           1
           0           0           1
           0           0           1
           0           0           1
%END BLOCK ION_OPTIMIZATION
