%BLOCK LATTICE_CART
2.812387583322    0.000000000000    0.000000000000    
1.406193791661    2.435599092444    0.000000000000    
0.000000000000    0.000000000000    22.963048460257    
%END BLOCK LATTICE_CART
%BLOCK POSITIONS_FRAC
Al    0.000000000000    0.000000000000    0.000000000000
Al    0.333333333333    0.333333333333    0.100000000000
Al    0.666666666667    0.666666666667    0.200000000000
Al    0.000000000000    0.000000000000    0.300000000000
Al    0.333333333333    0.333333333333    0.400000000000
%END BLOCK POSITIONS_FRAC
%BLOCK SPECIES_POT
Al al.lda.recpot
%END BLOCK SPECIES_POT
