%BLOCK LATTICE_CART
   2.807406101100000   0.000000000000000   0.000000000000000
   1.403703050550000   2.431285002292024   0.000000000000000
   0.000000000000003   0.000000000000002  50.726694634996932
%END BLOCK LATTICE_CART
%BLOCK POSITIONS_FRAC
    Al   0.000000000000000   0.000000000000000   0.000081065308437
    Al   0.333333333300000   0.333333333300000   0.045138415657884
    Al   0.666666666700000   0.666666666700000   0.090367469749972
    Al   0.000000000000000   0.000000000000000   0.135354270905227
    Al   0.333333333300000   0.333333333300000   0.181142122543486
    Al   0.000000000000000   0.000000000000000   0.226425143005984
    Al   0.500000000000000   0.500000000000000   0.273674449835128
    Al   0.833333333300000   0.833333333300000   0.318606190556278
    Al   0.166666666700000   0.166666666700000   0.363992297278888
    Al   0.500000000000000   0.500000000000000   0.409003248752826
    Al   0.833333333300000   0.833333333300000   0.454545647804477
    Al   0.500000000000000   0.500000000000000   0.500088041735527
    Al   0.166666666700000   0.166666666700000   0.545099005819827
    Al   0.833333333300000   0.833333333300000   0.590485082780564
    Al   0.500000000000000   0.500000000000000   0.635416785976142
    Al   0.000000000000000   0.000000000000000   0.682665974378036
    Al   0.333333333300000   0.333333333300000   0.727948910252683
    Al   0.000000000000000   0.000000000000000   0.773736591012156
    Al   0.666666666700000   0.666666666700000   0.818723259221256
    Al   0.333333333300000   0.333333333300000   0.863952143145877
    Al   0.000000000000000   0.000000000000000   0.909009392124902
    Al   0.666666666700000   0.666666666700000   0.954545197298309
%END BLOCK POSITIONS_FRAC
%BLOCK SPECIES_POT
    Al al.lda.recpot                                                                          
%END BLOCK SPECIES_POT
%BLOCK ION_OPTIMIZATION
           0           0           1
           0           0           1
           0           0           1
           0           0           1
           0           0           1
           0           0           1
           0           0           1
           0           0           1
           0           0           1
           0           0           1
           0           0           1
           0           0           1
           0           0           1
           0           0           1
           0           0           1
           0           0           1
           0           0           1
           0           0           1
           0           0           1
           0           0           1
           0           0           1
           0           0           1
%END BLOCK ION_OPTIMIZATION
