%BLOCK LATTICE_CART
0.000000000000    1.996775753725    1.996775753725    
1.996775753725    0.000000000000    1.996775753725    
1.996775753725    1.996775753725    0.000000000000    
%END BLOCK LATTICE_CART
%BLOCK POSITIONS_FRAC
Al    0.000000000000    0.000000000000    0.000000000000
%END BLOCK POSITIONS_FRAC
%BLOCK SPECIES_POT
Al al.lda.recpot
%END BLOCK SPECIES_POT
