%BLOCK LATTICE_CART
   3.090753326817741  -0.000103381596011   0.000000073603474
  -1.545466213332809   2.676619239379150  -0.000000042339610
   0.000000057640086  -0.000000022336918   5.018946458485739
%END BLOCK LATTICE_CART
%BLOCK POSITIONS_FRAC
    Mg   0.000000000000000   0.000000000000000   0.000000000000000
    Mg   0.666666666667000   0.333333333333000   0.500000000000000
%END BLOCK POSITIONS_FRAC
%BLOCK SPECIES_POT
    Mg mg.lda.recpot                                                                          
%END BLOCK SPECIES_POT
