ATOMIC_SPECIES
Al 26.981539 Al_ONCV_PBE-1.2.upf

LATTICE_CONSTANT
7.4984327225523  // add lattice constant

LATTICE_VECTORS
0.707106781187    0.000000000000    0.000000000000    
0.353553390593    0.612372435696    0.000000000000    
0.000000000000    0.000000000000    12.701705922171765  

ATOMIC_POSITIONS
Direct

Al
0.0
22
    -1.5106907196E-30 -1.5773929533E-30  1.4079313831E-04 1 1 1
     3.3333333330E-01  3.3333333330E-01  4.5330895296E-02 1 1 1
     6.6666666670E-01  6.6666666670E-01  9.0810610781E-02 1 1 1
    -1.4973956212E-30 -1.5640978549E-30  1.3592524444E-01 1 1 1
     3.3333333330E-01  3.3333333330E-01  1.8140311923E-01 1 1 1
    -1.4970145564E-30 -1.5637167901E-30  2.2707258038E-01 1 1 1
     4.3333333330E-01  4.3333333330E-01  2.7331129239E-01 1 1 1
     7.6666666670E-01  7.6666666670E-01  3.1846158182E-01 1 1 1
     1.0000000000E-01  1.0000000000E-01  3.6386142250E-01 1 1 1
     4.3333333330E-01  4.3333333330E-01  4.0901053097E-01 1 1 1
     7.6666666670E-01  7.6666666670E-01  4.5454545455E-01 1 1 1
     4.3333333330E-01  4.3333333330E-01  5.0008037813E-01 1 1 1
     1.0000000000E-01  1.0000000000E-01  5.4522948660E-01 1 1 1
     7.6666666670E-01  7.6666666670E-01  5.9062932728E-01 1 1 1
     4.3333333330E-01  4.3333333330E-01  6.3577961671E-01 1 1 1
    -1.4970145564E-30 -1.5637167901E-30  6.8201832872E-01 1 1 1
     3.3333333330E-01  3.3333333330E-01  7.2768778987E-01 1 1 1
    -1.4973956212E-30 -1.5640978549E-30  7.7316566466E-01 1 1 1
     6.6666666670E-01  6.6666666670E-01  8.1828029832E-01 1 1 1
     3.3333333330E-01  3.3333333330E-01  8.6376001380E-01 1 1 1
    -1.5106907196E-30 -1.5773929533E-30  9.0895011596E-01 1 1 1
     6.6666666670E-01  6.6666666670E-01  9.5454545455E-01 1 1 1
