%BLOCK LATTICE_CART
2.828739581142    0.000000000000    0.000000000000    
0.000000000000    2.828739581142    0.000000000000    
0.000000000000    0.000000000000    20.002209400365    
%END BLOCK LATTICE_CART
%BLOCK POSITIONS_FRAC
Al    0.000000000000    0.000000000000    0.000000000000
Al    0.500000000000    0.500000000000    0.100000000000
Al    0.000000000000    0.000000000000    0.200000000000
Al    0.500000000000    0.500000000000    0.300000000000
Al    0.000000000000    0.000000000000    0.400000000000
%END BLOCK POSITIONS_FRAC
%BLOCK SPECIES_POT
Al al.lda.recpot
%END BLOCK SPECIES_POT
