ATOMIC_SPECIES
Al 26.981539 Al_ONCV_PBE-1.2.upf

LATTICE_CONSTANT
7.4984327225523  // add lattice constant

LATTICE_VECTORS
0.707106781187    0.000000000000    0.000000000000    
0.353553390593    0.612372435696    0.000000000000    
0.000000000000    0.000000000000    12.701705922171765

ATOMIC_POSITIONS
Direct

Al
0.0
22
    -2.2811064804E-30 -2.3478087141E-30  1.6259492945E-04 1 1 1
     3.3333333330E-01  3.3333333330E-01  4.5328301827E-02 1 1 1
     6.6666666670E-01  6.6666666670E-01  9.0822974752E-02 1 1 1
    -2.2678113819E-30 -2.3345136157E-30  1.3600263891E-01 1 1 1
     3.3333333330E-01  3.3333333330E-01  1.8156583466E-01 1 1 1
    -2.2674303172E-30 -2.3341325509E-30  2.2697131333E-01 1 1 1
     5.6666666670E-01  5.6666666670E-01  2.7314729103E-01 1 1 1
     9.0000000000E-01  9.0000000000E-01  3.1858129958E-01 1 1 1
     2.3333333330E-01  2.3333333330E-01  3.6386004844E-01 1 1 1
     5.6666666670E-01  5.6666666670E-01  4.0900552287E-01 1 1 1
     9.0000000000E-01  9.0000000000E-01  4.5454545455E-01 1 1 1
     5.6666666670E-01  5.6666666670E-01  5.0008538623E-01 1 1 1
     2.3333333330E-01  2.3333333330E-01  5.4523086066E-01 1 1 1
     9.0000000000E-01  9.0000000000E-01  5.9050960952E-01 1 1 1
     5.6666666670E-01  5.6666666670E-01  6.3594361807E-01 1 1 1
    -2.2674303172E-30 -2.3341325509E-30  6.8211959577E-01 1 1 1
     3.3333333330E-01  3.3333333330E-01  7.2752507444E-01 1 1 1
    -2.2678113819E-30 -2.3345136157E-30  7.7308827019E-01 1 1 1
     6.6666666670E-01  6.6666666670E-01  8.1826793435E-01 1 1 1
     3.3333333330E-01  3.3333333330E-01  8.6376260727E-01 1 1 1
    -2.2811064804E-30 -2.3478087141E-30  9.0892831417E-01 1 1 1
     6.6666666670E-01  6.6666666670E-01  9.5454545455E-01 1 1 1
