%BLOCK LATTICE_CART
   0.001472440053592   2.802555659572153   2.802767747596171
   2.802753708234239   0.001640598926364   2.802798402252563
   2.802713053673669   2.802545659534488   0.001427525130347
%END BLOCK LATTICE_CART
%BLOCK POSITIONS_FRAC
    Li   0.000000000000000   0.000000000000000   0.000000000000000
    Li   0.250000000000000   0.250000000000000   0.250000000000000
%END BLOCK POSITIONS_FRAC
%BLOCK SPECIES_POT
    Li li.lda.recpot                                                                          
%END BLOCK SPECIES_POT
