%BLOCK LATTICE_CART
  -1.769762033109434   1.770134313233298   1.770134317934288
   1.770134297713335  -1.769762016652294   1.770134301435291
   1.770134298866006   1.770134297886971  -1.769762017839454
%END BLOCK LATTICE_CART
%BLOCK POSITIONS_FRAC
    Mg   0.000000000000000   0.000000000000000   0.000000000000000
%END BLOCK POSITIONS_FRAC
%BLOCK SPECIES_POT
    Mg mg.lda.recpot                                                                          
%END BLOCK SPECIES_POT
