%BLOCK LATTICE_CART
   2.833725690800000   0.000000000000000   0.000000000000000
   1.416862845400000   2.454078435589407   0.000000000000000
   0.000000000000003   0.000000000000002  50.972294907360975
%END BLOCK LATTICE_CART
%BLOCK POSITIONS_FRAC
    Al   0.000000000000000   0.000000000000000   0.999948930044810
    Al   0.333333333300000   0.333333333300000   0.045389136762469
    Al   0.666666666700000   0.666666666700000   0.090831398909076
    Al   0.000000000000000   0.000000000000000   0.136275736635843
    Al   0.333333333300000   0.333333333300000   0.181654740193369
    Al   0.000000000000000   0.000000000000000   0.227003287826917
    Al   0.400000000000000   0.400000000000000   0.272916316157396
    Al   0.733333333300000   0.733333333300000   0.318344966756314
    Al   0.066666666700000   0.066666666700000   0.363770999567011
    Al   0.400000000000000   0.400000000000000   0.409182048454368
    Al   0.733333333300000   0.733333333300000   0.454545019917220
    Al   0.400000000000000   0.400000000000000   0.499908044035983
    Al   0.066666666700000   0.066666666700000   0.545319245311668
    Al   0.733333333300000   0.733333333300000   0.590745494170545
    Al   0.400000000000000   0.400000000000000   0.636174388245884
    Al   0.000000000000000   0.000000000000000   0.682087653588856
    Al   0.333333333300000   0.333333333300000   0.727436413964341
    Al   0.000000000000000   0.000000000000000   0.772815577899266
    Al   0.666666666700000   0.666666666700000   0.818260013467542
    Al   0.333333333300000   0.333333333300000   0.863702329303890
    Al   1.000000000000000   1.000000000000000   0.909142556375249
    Al   0.666666666700000   0.666666666700000   0.954545745545984
%END BLOCK POSITIONS_FRAC
%BLOCK SPECIES_POT
    Al al.lda.recpot                                                                          
%END BLOCK SPECIES_POT
%BLOCK ION_OPTIMIZATION
           0           0           1
           0           0           1
           0           0           1
           0           0           1
           0           0           1
           0           0           1
           0           0           1
           0           0           1
           0           0           1
           0           0           1
           0           0           1
           0           0           1
           0           0           1
           0           0           1
           0           0           1
           0           0           1
           0           0           1
           0           0           1
           0           0           1
           0           0           1
           0           0           1
           0           0           1
%END BLOCK ION_OPTIMIZATION
