ATOMIC_SPECIES
Li 6.941 li.gga.psp.1 blps
Al 26.981 al.gga.psp blps

LATTICE_CONSTANT
1.8897259885789233  // add lattice constant

LATTICE_VECTORS
9.590818000000    0.000000000000    0.000000000000    
0.000000000000    9.590818000000    0.000000000000    
0.000000000000    0.000000000000    9.590818000000    

ATOMIC_POSITIONS
Direct

Li
0.0
16
    0.125000000000    0.625000000000    0.625000000000 1 1 1
    0.375000000000    0.875000000000    0.625000000000 1 1 1
    0.375000000000    0.625000000000    0.875000000000 1 1 1
    0.125000000000    0.875000000000    0.875000000000 1 1 1
    0.125000000000    0.125000000000    0.125000000000 1 1 1
    0.375000000000    0.375000000000    0.125000000000 1 1 1
    0.375000000000    0.125000000000    0.375000000000 1 1 1
    0.125000000000    0.375000000000    0.375000000000 1 1 1
    0.625000000000    0.625000000000    0.125000000000 1 1 1
    0.875000000000    0.875000000000    0.125000000000 1 1 1
    0.875000000000    0.625000000000    0.375000000000 1 1 1
    0.625000000000    0.875000000000    0.375000000000 1 1 1
    0.625000000000    0.125000000000    0.625000000000 1 1 1
    0.875000000000    0.375000000000    0.625000000000 1 1 1
    0.875000000000    0.125000000000    0.875000000000 1 1 1
    0.625000000000    0.375000000000    0.875000000000 1 1 1
Al
0.0
32
    0.398473000000    0.898473000000    0.898473000000 1 1 1
    0.101527000000    0.101527000000    0.398473000000 1 1 1
    0.101527000000    0.898473000000    0.601527000000 1 1 1
    0.148473000000    0.148473000000    0.851527000000 1 1 1
    0.351527000000    0.351527000000    0.851527000000 1 1 1
    0.398473000000    0.101527000000    0.101527000000 1 1 1
    0.148473000000    0.351527000000    0.648473000000 1 1 1
    0.351527000000    0.148473000000    0.648473000000 1 1 1
    0.398473000000    0.398473000000    0.398473000000 1 1 1
    0.101527000000    0.601527000000    0.898473000000 1 1 1
    0.101527000000    0.398473000000    0.101527000000 1 1 1
    0.148473000000    0.648473000000    0.351527000000 1 1 1
    0.351527000000    0.851527000000    0.351527000000 1 1 1
    0.398473000000    0.601527000000    0.601527000000 1 1 1
    0.148473000000    0.851527000000    0.148473000000 1 1 1
    0.351527000000    0.648473000000    0.148473000000 1 1 1
    0.898473000000    0.898473000000    0.398473000000 1 1 1
    0.601527000000    0.101527000000    0.898473000000 1 1 1
    0.601527000000    0.898473000000    0.101527000000 1 1 1
    0.648473000000    0.148473000000    0.351527000000 1 1 1
    0.851527000000    0.351527000000    0.351527000000 1 1 1
    0.898473000000    0.101527000000    0.601527000000 1 1 1
    0.648473000000    0.351527000000    0.148473000000 1 1 1
    0.851527000000    0.148473000000    0.148473000000 1 1 1
    0.898473000000    0.398473000000    0.898473000000 1 1 1
    0.601527000000    0.601527000000    0.398473000000 1 1 1
    0.601527000000    0.398473000000    0.601527000000 1 1 1
    0.648473000000    0.648473000000    0.851527000000 1 1 1
    0.851527000000    0.851527000000    0.851527000000 1 1 1
    0.898473000000    0.601527000000    0.101527000000 1 1 1
    0.648473000000    0.851527000000    0.648473000000 1 1 1
    0.851527000000    0.648473000000    0.648473000000 1 1 1
