%BLOCK LATTICE_CART
   2.806843720900000   0.000000000000000   0.000000000000000
   1.403421860450000   2.430797966752238   0.000000000000000
   0.000000000000003   0.000000000000002  50.708350897346911
%END BLOCK LATTICE_CART
%BLOCK POSITIONS_FRAC
    Al   0.000000000000000   0.000000000000000   0.000136599378994
    Al   0.333333333300000   0.333333333300000   0.045137011924325
    Al   0.666666666700000   0.666666666700000   0.090271620920622
    Al   0.000000000000000   0.000000000000000   0.135241417375455
    Al   0.333333333300000   0.333333333300000   0.180992398976645
    Al   0.000000000000000   0.000000000000000   0.226519228384054
    Al   0.466666666700000   0.466666666700000   0.273862508969812
    Al   0.800000000000000   0.800000000000000   0.318759416892053
    Al   0.133333333300000   0.133333333300000   0.363989224280702
    Al   0.466666666700000   0.466666666700000   0.408955958354321
    Al   0.800000000000000   0.800000000000000   0.454547734928535
    Al   0.466666666700000   0.466666666700000   0.500139305045710
    Al   0.133333333300000   0.133333333300000   0.545105565666066
    Al   0.800000000000000   0.800000000000000   0.590334508894988
    Al   0.466666666700000   0.466666666700000   0.635230444276396
    Al   1.000000000000000   1.000000000000000   0.682572389370787
    Al   0.333333333300000   0.333333333300000   0.728098080094040
    Al   1.000000000000000   1.000000000000000   0.773847719719633
    Al   0.666666666700000   0.666666666700000   0.818816422281556
    Al   0.333333333300000   0.333333333300000   0.863950072429479
    Al   0.000000000000000   0.000000000000000   0.908949908511203
    Al   0.666666666700000   0.666666666700000   0.954543129525002
%END BLOCK POSITIONS_FRAC
%BLOCK SPECIES_POT
    Al al.lda.recpot                                                                          
%END BLOCK SPECIES_POT
%BLOCK ION_OPTIMIZATION
           0           0           1
           0           0           1
           0           0           1
           0           0           1
           0           0           1
           0           0           1
           0           0           1
           0           0           1
           0           0           1
           0           0           1
           0           0           1
           0           0           1
           0           0           1
           0           0           1
           0           0           1
           0           0           1
           0           0           1
           0           0           1
           0           0           1
           0           0           1
           0           0           1
           0           0           1
%END BLOCK ION_OPTIMIZATION
