%BLOCK LATTICE_CART
-2.375227319912478 2.375227319912478 1.2957819277460818
2.375227319912478 -2.375227319912478 1.2957819277460818
2.375227319912478 2.375227319912478 -1.2957819277460818
%END BLOCK LATTICE_CART
%BLOCK POSITIONS_FRAC
Si 0 0 0
Si 0.75 0.25 0.5
%END BLOCK POSITIONS_FRAC
%BLOCK SPECIES_POT
Si si.lda.recpot
%END BLOCK SPECIES_POT
