ATOMIC_SPECIES
Al 13 al.gga.psp blps
Mg 12 mg.gga.psp blps

LATTICE_CONSTANT
7.907747371807362  // add lattice constant

LATTICE_VECTORS
1.000000000000    0.000000000000    0.000000000000    
0.000000000000    1.000000000000    0.000000000000    
0.000000000000    0.000000000000    1.000000000000    

ATOMIC_POSITIONS
Direct

Al
0.0
1
    0.000000000000    0.000000000000    0.000000000000 1 1 1
Mg
0.0
3
    0.000000000000    0.500000000000    0.500000000000 1 1 1
    0.500000000000    0.500000000000    0.000000000000 1 1 1
    0.500000000000    0.000000000000    0.500000000000 1 1 1
