ATOMIC_SPECIES
Al 26.981539 al.lda.lps

LATTICE_CONSTANT
7.50241114482312  // add lattice constant

LATTICE_VECTORS
0.707106781187    0.000000000000    0.000000000000    
0.353553390593    0.612372435696    0.000000000000    
0.000000000000    0.000000000000    11.547005383792515

ATOMIC_POSITIONS
Direct

Al
0.0
20
    9.1337065935E-31  9.1337065935E-31  1.3167780246E-04 1 1 1
    3.3333333330E-01  3.3333333330E-01  4.9862462906E-02 1 1 1
    6.6666666670E-01  6.6666666670E-01  9.9950897025E-02 1 1 1
    7.9655955297E-31  8.1261821852E-31  1.4987186645E-01 1 1 1
    3.3333333330E-01  3.3333333330E-01  1.9992330070E-01 1 1 1
    7.0000000000E-01  7.0000000000E-01  2.5015519242E-01 1 1 1
    3.3333333300E-02  3.3333333300E-02  3.0006240692E-01 1 1 1
    3.6666666670E-01  3.6666666670E-01  3.5016090449E-01 1 1 1
    7.0000000000E-01  7.0000000000E-01  3.9988674546E-01 1 1 1
    3.3333333300E-02  3.3333333300E-02  4.5000000000E-01 1 1 1
    7.0000000000E-01  7.0000000000E-01  5.0011325454E-01 1 1 1
    3.6666666670E-01  3.6666666670E-01  5.4983909551E-01 1 1 1
    3.3333333300E-02  3.3333333300E-02  5.9993759308E-01 1 1 1
    7.0000000000E-01  7.0000000000E-01  6.4984480758E-01 1 1 1
    3.3333333330E-01  3.3333333330E-01  7.0007669930E-01 1 1 1
    8.1398244482E-31  8.7821710703E-31  7.5012813355E-01 1 1 1
    6.6666666670E-01  6.6666666670E-01  8.0004910298E-01 1 1 1
    3.3333333330E-01  3.3333333330E-01  8.5013753709E-01 1 1 1
    8.6597836501E-31  8.6597836501E-31  8.9986832220E-01 1 1 1
    6.6666666670E-01  6.6666666670E-01  9.5000000000E-01 1 1 1