ATOMIC_SPECIES
Si 14 si.lda.lps blps

LATTICE_CONSTANT
10.16763978641871  // add lattice constant

LATTICE_VECTORS
0.500000000000    0.500000000000    0.000000000000    
-0.500000000000    0.500000000000    0.000000000000    
0.000000000000    0.000000000000    4.500000000000    

ATOMIC_POSITIONS
Direct

Si
0.0
11
    0.000000000000    0.000000000000 0.0    1 1 1
    0.500000000000    0.000000000000 0.05555555555555555    1 1 1
    0.5 0.5 0.1111111111111111 1 1 1
    0.0 0.5 0.16666666666666666 1 1 1
    0.0 0.0 0.2222222222222222 1 1 1
    0.5 0.0 0.2777777777777778 1 1 1
    0.5 0.5 0.3333333333333333 1 1 1
    0.0 0.5 0.3888888888888889 1 1 1
    0.0 0.0 0.4444444444444444 1 1 1
    0.5 0.0 0.5 1 1 1
    0.5 0.5 0.5555555555555556 1 1 1