%BLOCK LATTICE_CART
3.201491546233    0.000000000000    0.000000000000    
-1.600745773117    2.772573009039    0.000000000000    
0.000000000000    0.000000000000    5.235788279349    
%END BLOCK LATTICE_CART
%BLOCK POSITIONS_FRAC
Mg    0.000000000000    0.000000000000    0.000000000000
Mg    0.666666666667    0.333333333333    0.500000000000
%END BLOCK POSITIONS_FRAC
%BLOCK SPECIES_POT
Mg mg.gga.recpot
%END BLOCK SPECIES_POT
