%BLOCK LATTICE_CART
   2.928340981124963   0.000000007571711   0.000000019655767
   0.000000007571711   2.928340981821391  -0.000000005252937
   0.000000019655767  -0.000000005252937   2.928340981821903
%END BLOCK LATTICE_CART
%BLOCK POSITIONS_FRAC
    Mg   0.000000000000000   0.000000000000000   0.000000000000000
%END BLOCK POSITIONS_FRAC
%BLOCK SPECIES_POT
    Mg mg.lda.recpot                                                                          
%END BLOCK SPECIES_POT
