%BLOCK LATTICE_CART
   2.828739581100000   0.000000000000000   0.000000000000000
   1.414369790550000   2.449760337923151   0.000000000000000
   0.000000000000003   0.000000000000002  50.956021330264164
%END BLOCK LATTICE_CART
%BLOCK POSITIONS_FRAC
    Al   0.000000000000000   0.000000000000000   0.999876111523519
    Al   0.333333333300000   0.333333333300000   0.045215576997790
    Al   0.666666666700000   0.666666666700000   0.090544117350974
    Al   0.000000000000000   0.000000000000000   0.135889978195682
    Al   0.333333333300000   0.333333333300000   0.181237533440724
    Al   0.000000000000000   0.000000000000000   0.226437630006982
    Al   0.466666666700000   0.466666666700000   0.273339742551265
    Al   0.800000000000000   0.800000000000000   0.318555389293850
    Al   0.133333333300000   0.133333333300000   0.363891083705015
    Al   0.466666666700000   0.466666666700000   0.409223692557400
    Al   0.800000000000000   0.800000000000000   0.454545641881390
    Al   0.466666666700000   0.466666666700000   0.499867614480338
    Al   0.133333333300000   0.133333333300000   0.545200242188559
    Al   0.800000000000000   0.800000000000000   0.590535930828421
    Al   0.466666666700000   0.466666666700000   0.635751546458394
    Al   1.000000000000000   1.000000000000000   0.682653522259736
    Al   0.333333333300000   0.333333333300000   0.727853562217335
    Al   0.000000000000000   0.000000000000000   0.773200971499158
    Al   0.666666666700000   0.666666666700000   0.818546691104423
    Al   0.333333333300000   0.333333333300000   0.863875060410359
    Al   1.000000000000000   1.000000000000000   0.909214407739833
    Al   0.666666666700000   0.666666666700000   0.954545235742027
%END BLOCK POSITIONS_FRAC
%BLOCK SPECIES_POT
    Al al.lda.recpot                                                                          
%END BLOCK SPECIES_POT
%BLOCK ION_OPTIMIZATION
           0           0           1
           0           0           1
           0           0           1
           0           0           1
           0           0           1
           0           0           1
           0           0           1
           0           0           1
           0           0           1
           0           0           1
           0           0           1
           0           0           1
           0           0           1
           0           0           1
           0           0           1
           0           0           1
           0           0           1
           0           0           1
           0           0           1
           0           0           1
           0           0           1
           0           0           1
%END BLOCK ION_OPTIMIZATION
