Transformation
0.529176965773
32.125341805842  0.000000000000  0.000000000000
0.000000000000  34.015067794421  0.000000000000
0.000000000000  0.000000000000  202.836520108573
C  
1000  
Direct
0.629277000000  0.520849000000  0.009070000000  
0.641897000000  0.472701000000  0.020084000000  
0.512081000000  0.642086000000  0.020054000000  
0.629194000000  0.521059000000  0.030986000000  
0.632474000000  0.512180000000  0.045831000000  
0.643834000000  0.444483000000  0.052331000000  
0.643834000000  0.444803000000  0.067610000000  
0.632366000000  0.512492000000  0.074126000000  
0.629086000000  0.521333000000  0.088913000000  
0.641859000000  0.472981000000  0.099865000000  
0.512106000000  0.642074000000  0.099833000000  
0.629459000000  0.520384000000  0.110771000000  
0.633082000000  0.510386000000  0.125272000000  
0.484731000000  0.652506000000  0.131627000000  
0.484196000000  0.652672000000  0.146219000000  
0.632478000000  0.512166000000  0.153113000000  
0.632377000000  0.512461000000  0.167013000000  
0.643834000000  0.444594000000  0.173830000000  
0.643834000000  0.444672000000  0.188284000000  
0.632708000000  0.511495000000  0.194627000000  
0.556783000000  0.615558000000  0.009035000000  
0.600138000000  0.572456000000  0.013588000000  
0.600000000000  0.572637000000  0.026397000000  
0.556613000000  0.615686000000  0.030941000000  
0.548423000000  0.621590000000  0.045807000000  
0.599287000000  0.573566000000  0.052887000000  
0.599085000000  0.573827000000  0.066983000000  
0.547368000000  0.622311000000  0.074076000000  
0.556002000000  0.616146000000  0.088824000000  
0.599809000000  0.572887000000  0.093438000000  
0.599721000000  0.573002000000  0.106214000000  
0.557048000000  0.615357000000  0.110752000000  
0.548833000000  0.621307000000  0.125273000000  
0.600238000000  0.572325000000  0.132547000000  
0.599883000000  0.572791000000  0.146395000000  
0.548501000000  0.621536000000  0.153105000000  
0.548238000000  0.621717000000  0.167033000000  
0.599557000000  0.573215000000  0.173679000000  
0.599776000000  0.572931000000  0.187547000000  
0.548366000000  0.621629000000  0.194737000000  
0.402041000000  0.663429000000  0.009070000000  
0.454425000000  0.659886000000  0.020084000000  
0.243739000000  0.595625000000  0.020054000000  
0.401803000000  0.663419000000  0.030986000000  
0.411757000000  0.663621000000  0.045831000000  
0.483439000000  0.652906000000  0.052331000000  
0.483117000000  0.653004000000  0.067610000000  
0.411410000000  0.663621000000  0.074126000000  
0.401494000000  0.663406000000  0.088913000000  
0.454132000000  0.659938000000  0.099865000000  
0.243758000000  0.595644000000  0.099833000000  
0.402565000000  0.663449000000  0.110771000000  
0.413752000000  0.663613000000  0.125272000000  
0.224795000000  0.574279000000  0.131627000000  
0.224462000000  0.573850000000  0.146219000000  
0.411773000000  0.663621000000  0.153113000000  
0.411445000000  0.663621000000  0.167013000000  
0.483327000000  0.652940000000  0.173830000000  
0.483249000000  0.652964000000  0.188284000000  
0.412520000000  0.663620000000  0.194627000000  
0.284266000000  0.627580000000  0.009035000000  
0.341067000000  0.653203000000  0.013588000000  
0.340843000000  0.653135000000  0.026397000000  
0.284085000000  0.627467000000  0.030941000000  
0.275609000000  0.621934000000  0.045807000000  
0.339687000000  0.652782000000  0.052887000000  
0.339361000000  0.652681000000  0.066983000000  
0.274556000000  0.621210000000  0.074076000000  
0.283433000000  0.627060000000  0.088824000000  
0.340531000000  0.653041000000  0.093438000000  
0.340388000000  0.652997000000  0.106214000000  
0.284551000000  0.627756000000  0.110752000000  
0.276021000000  0.622215000000  0.125273000000  
0.341230000000  0.653252000000  0.132547000000  
0.340651000000  0.653077000000  0.146395000000  
0.275688000000  0.621988000000  0.153105000000  
0.275424000000  0.621808000000  0.167033000000  
0.340124000000  0.652916000000  0.173679000000  
0.340478000000  0.653024000000  0.187547000000  
0.275552000000  0.621895000000  0.194737000000  
0.188243000000  0.503380000000  0.009070000000  
0.207997000000  0.549338000000  0.020084000000  
0.207603000000  0.340238000000  0.020054000000  
0.188179000000  0.503163000000  0.030986000000  
0.191051000000  0.512167000000  0.045831000000  
0.223992000000  0.573242000000  0.052331000000  
0.223794000000  0.572983000000  0.067610000000  
0.190944000000  0.511855000000  0.074126000000  
0.188096000000  0.502882000000  0.088913000000  
0.207855000000  0.549090000000  0.099865000000  
0.207589000000  0.340261000000  0.099833000000  
0.188384000000  0.503857000000  0.110771000000  
0.191676000000  0.513956000000  0.125272000000  
0.223244000000  0.316626000000  0.131627000000  
0.223574000000  0.316193000000  0.146219000000  
0.191056000000  0.512181000000  0.153113000000  
0.190955000000  0.511886000000  0.167013000000  
0.223923000000  0.573152000000  0.173830000000  
0.223875000000  0.573089000000  0.188284000000  
0.191288000000  0.512852000000  0.194627000000  
0.187948000000  0.386515000000  0.009035000000  
0.179698000000  0.445453000000  0.013588000000  
0.179697000000  0.445230000000  0.026397000000  
0.188006000000  0.386317000000  0.030941000000  
0.190958000000  0.376994000000  0.045807000000  
0.179696000000  0.444083000000  0.052887000000  
0.179696000000  0.443759000000  0.066983000000  
0.191362000000  0.375824000000  0.074076000000  
0.188214000000  0.385605000000  0.088824000000  
0.179696000000  0.444921000000  0.093438000000  
0.179696000000  0.444779000000  0.106214000000  
0.187858000000  0.386825000000  0.110752000000  
0.190802000000  0.377451000000  0.125273000000  
0.179699000000  0.445614000000  0.132547000000  
0.179696000000  0.445040000000  0.146395000000  
0.190928000000  0.377081000000  0.153105000000  
0.191028000000  0.376789000000  0.167033000000  
0.179695000000  0.444516000000  0.173679000000  
0.179696000000  0.444868000000  0.187547000000  
0.190980000000  0.376931000000  0.194737000000  
0.283344000000  0.261884000000  0.009070000000  
0.243169000000  0.293830000000  0.020084000000  
0.453611000000  0.228860000000  0.020054000000  
0.283543000000  0.261760000000  0.030986000000  
0.275364000000  0.267123000000  0.045831000000  
0.224041000000  0.315584000000  0.052331000000  
0.224240000000  0.315326000000  0.067610000000  
0.275645000000  0.266930000000  0.074126000000  
0.283800000000  0.261599000000  0.088913000000  
0.243375000000  0.293626000000  0.099865000000  
0.453584000000  0.228856000000  0.099833000000  
0.282908000000  0.262159000000  0.110771000000  
0.273755000000  0.268236000000  0.125272000000  
0.482222000000  0.235613000000  0.131627000000  
0.482759000000  0.235776000000  0.146219000000  
0.275351000000  0.267131000000  0.153113000000  
0.275617000000  0.266949000000  0.167013000000  
0.224110000000  0.315494000000  0.173830000000  
0.224159000000  0.315431000000  0.188284000000  
0.274747000000  0.267547000000  0.194627000000  
0.400937000000  0.225506000000  0.009035000000  
0.339037000000  0.236309000000  0.013588000000  
0.339261000000  0.236239000000  0.026397000000  
0.401154000000  0.225497000000  0.030941000000  
0.411454000000  0.225268000000  0.045807000000  
0.340416000000  0.235884000000  0.052887000000  
0.340742000000  0.235784000000  0.066983000000  
0.412757000000  0.225270000000  0.074076000000  
0.401935000000  0.225465000000  0.088824000000  
0.339572000000  0.236143000000  0.093438000000  
0.339714000000  0.236099000000  0.106214000000  
0.400597000000  0.225522000000  0.110752000000  
0.410946000000  0.225269000000  0.125273000000  
0.338875000000  0.236359000000  0.132547000000  
0.339452000000  0.236180000000  0.146395000000  
0.411357000000  0.225268000000  0.153105000000  
0.411683000000  0.225268000000  0.167033000000  
0.339979000000  0.236017000000  0.173679000000  
0.339625000000  0.236126000000  0.187547000000  
0.411525000000  0.225268000000  0.194737000000  
0.555919000000  0.272681000000  0.009070000000  
0.511334000000  0.246467000000  0.020084000000  
0.641789000000  0.415412000000  0.020054000000  
0.556105000000  0.272820000000  0.030986000000  
0.548177000000  0.267131000000  0.045831000000  
0.483517000000  0.236007000000  0.052331000000  
0.483839000000  0.236106000000  0.067610000000  
0.548459000000  0.267324000000  0.074126000000  
0.556347000000  0.273002000000  0.088913000000  
0.511604000000  0.246588000000  0.099865000000  
0.641786000000  0.415387000000  0.099833000000  
0.555507000000  0.272373000000  0.110771000000  
0.546559000000  0.266030000000  0.125272000000  
0.643830000000  0.443199000000  0.131627000000  
0.643833000000  0.443731000000  0.146219000000  
0.548165000000  0.267122000000  0.153113000000  
0.548430000000  0.267305000000  0.167013000000  
0.483629000000  0.236041000000  0.173830000000  
0.483707000000  0.236066000000  0.188284000000  
0.547560000000  0.266708000000  0.194627000000  
0.628890000000  0.367063000000  0.009035000000  
0.598883000000  0.314801000000  0.013588000000  
0.599023000000  0.314981000000  0.026397000000  
0.628966000000  0.367255000000  0.030941000000  
0.632380000000  0.376436000000  0.045807000000  
0.599738000000  0.315909000000  0.052887000000  
0.599938000000  0.316171000000  0.066983000000  
0.632780000000  0.377607000000  0.074076000000  
0.629240000000  0.367947000000  0.088824000000  
0.599216000000  0.315230000000  0.093438000000  
0.599304000000  0.315345000000  0.106214000000  
0.628769000000  0.366763000000  0.110752000000  
0.632222000000  0.375981000000  0.125273000000  
0.598782000000  0.314671000000  0.132547000000  
0.599141000000  0.315134000000  0.146395000000  
0.632350000000  0.376349000000  0.153105000000  
0.632451000000  0.376642000000  0.167033000000  
0.599468000000  0.315558000000  0.173679000000  
0.599249000000  0.315273000000  0.187547000000  
0.632402000000  0.376500000000  0.194737000000  
0.629277000000  0.520849000000  0.209070000000  
0.641897000000  0.472701000000  0.220084000000  
0.512081000000  0.642086000000  0.220054000000  
0.629194000000  0.521059000000  0.230986000000  
0.632474000000  0.512180000000  0.245831000000  
0.643834000000  0.444483000000  0.252331000000  
0.643834000000  0.444803000000  0.267610000000  
0.632366000000  0.512492000000  0.274126000000  
0.629086000000  0.521333000000  0.288913000000  
0.641859000000  0.472981000000  0.299865000000  
0.512106000000  0.642074000000  0.299833000000  
0.629459000000  0.520384000000  0.310771000000  
0.633082000000  0.510386000000  0.325272000000  
0.484731000000  0.652506000000  0.331627000000  
0.484196000000  0.652672000000  0.346219000000  
0.632478000000  0.512166000000  0.353113000000  
0.632377000000  0.512461000000  0.367013000000  
0.643834000000  0.444594000000  0.373830000000  
0.643834000000  0.444672000000  0.388284000000  
0.632708000000  0.511495000000  0.394627000000  
0.556783000000  0.615558000000  0.209035000000  
0.600138000000  0.572456000000  0.213588000000  
0.600000000000  0.572637000000  0.226397000000  
0.556613000000  0.615686000000  0.230941000000  
0.548423000000  0.621590000000  0.245807000000  
0.599287000000  0.573566000000  0.252887000000  
0.599085000000  0.573827000000  0.266983000000  
0.547368000000  0.622311000000  0.274076000000  
0.556002000000  0.616146000000  0.288824000000  
0.599809000000  0.572887000000  0.293438000000  
0.599721000000  0.573002000000  0.306214000000  
0.557048000000  0.615357000000  0.310752000000  
0.548833000000  0.621307000000  0.325273000000  
0.600238000000  0.572325000000  0.332547000000  
0.599883000000  0.572791000000  0.346395000000  
0.548501000000  0.621536000000  0.353105000000  
0.548238000000  0.621717000000  0.367033000000  
0.599557000000  0.573215000000  0.373679000000  
0.599776000000  0.572931000000  0.387547000000  
0.548366000000  0.621629000000  0.394737000000  
0.402041000000  0.663429000000  0.209070000000  
0.454425000000  0.659886000000  0.220084000000  
0.243739000000  0.595625000000  0.220054000000  
0.401803000000  0.663419000000  0.230986000000  
0.411757000000  0.663621000000  0.245831000000  
0.483439000000  0.652906000000  0.252331000000  
0.483117000000  0.653004000000  0.267610000000  
0.411410000000  0.663621000000  0.274126000000  
0.401494000000  0.663406000000  0.288913000000  
0.454132000000  0.659938000000  0.299865000000  
0.243758000000  0.595644000000  0.299833000000  
0.402565000000  0.663449000000  0.310771000000  
0.413752000000  0.663613000000  0.325272000000  
0.224795000000  0.574279000000  0.331627000000  
0.224462000000  0.573850000000  0.346219000000  
0.411773000000  0.663621000000  0.353113000000  
0.411445000000  0.663621000000  0.367013000000  
0.483327000000  0.652940000000  0.373830000000  
0.483249000000  0.652964000000  0.388284000000  
0.412520000000  0.663620000000  0.394627000000  
0.284266000000  0.627580000000  0.209035000000  
0.341067000000  0.653203000000  0.213588000000  
0.340843000000  0.653135000000  0.226397000000  
0.284085000000  0.627467000000  0.230941000000  
0.275609000000  0.621934000000  0.245807000000  
0.339687000000  0.652782000000  0.252887000000  
0.339361000000  0.652681000000  0.266983000000  
0.274556000000  0.621210000000  0.274076000000  
0.283433000000  0.627060000000  0.288824000000  
0.340531000000  0.653041000000  0.293438000000  
0.340388000000  0.652997000000  0.306214000000  
0.284551000000  0.627756000000  0.310752000000  
0.276021000000  0.622215000000  0.325273000000  
0.341230000000  0.653252000000  0.332547000000  
0.340651000000  0.653077000000  0.346395000000  
0.275688000000  0.621988000000  0.353105000000  
0.275424000000  0.621808000000  0.367033000000  
0.340124000000  0.652916000000  0.373679000000  
0.340478000000  0.653024000000  0.387547000000  
0.275552000000  0.621895000000  0.394737000000  
0.188243000000  0.503380000000  0.209070000000  
0.207997000000  0.549338000000  0.220084000000  
0.207603000000  0.340238000000  0.220054000000  
0.188179000000  0.503163000000  0.230986000000  
0.191051000000  0.512167000000  0.245831000000  
0.223992000000  0.573242000000  0.252331000000  
0.223794000000  0.572983000000  0.267610000000  
0.190944000000  0.511855000000  0.274126000000  
0.188096000000  0.502882000000  0.288913000000  
0.207855000000  0.549090000000  0.299865000000  
0.207589000000  0.340261000000  0.299833000000  
0.188384000000  0.503857000000  0.310771000000  
0.191676000000  0.513956000000  0.325272000000  
0.223244000000  0.316626000000  0.331627000000  
0.223574000000  0.316193000000  0.346219000000  
0.191056000000  0.512181000000  0.353113000000  
0.190955000000  0.511886000000  0.367013000000  
0.223923000000  0.573152000000  0.373830000000  
0.223875000000  0.573089000000  0.388284000000  
0.191288000000  0.512852000000  0.394627000000  
0.187948000000  0.386515000000  0.209035000000  
0.179698000000  0.445453000000  0.213588000000  
0.179697000000  0.445230000000  0.226397000000  
0.188006000000  0.386317000000  0.230941000000  
0.190958000000  0.376994000000  0.245807000000  
0.179696000000  0.444083000000  0.252887000000  
0.179696000000  0.443759000000  0.266983000000  
0.191362000000  0.375824000000  0.274076000000  
0.188214000000  0.385605000000  0.288824000000  
0.179696000000  0.444921000000  0.293438000000  
0.179696000000  0.444779000000  0.306214000000  
0.187858000000  0.386825000000  0.310752000000  
0.190802000000  0.377451000000  0.325273000000  
0.179699000000  0.445614000000  0.332547000000  
0.179696000000  0.445040000000  0.346395000000  
0.190928000000  0.377081000000  0.353105000000  
0.191028000000  0.376789000000  0.367033000000  
0.179695000000  0.444516000000  0.373679000000  
0.179696000000  0.444868000000  0.387547000000  
0.190980000000  0.376931000000  0.394737000000  
0.283344000000  0.261884000000  0.209070000000  
0.243169000000  0.293830000000  0.220084000000  
0.453611000000  0.228860000000  0.220054000000  
0.283543000000  0.261760000000  0.230986000000  
0.275364000000  0.267123000000  0.245831000000  
0.224041000000  0.315584000000  0.252331000000  
0.224240000000  0.315326000000  0.267610000000  
0.275645000000  0.266930000000  0.274126000000  
0.283800000000  0.261599000000  0.288913000000  
0.243375000000  0.293626000000  0.299865000000  
0.453584000000  0.228856000000  0.299833000000  
0.282908000000  0.262159000000  0.310771000000  
0.273755000000  0.268236000000  0.325272000000  
0.482222000000  0.235613000000  0.331627000000  
0.482759000000  0.235776000000  0.346219000000  
0.275351000000  0.267131000000  0.353113000000  
0.275617000000  0.266949000000  0.367013000000  
0.224110000000  0.315494000000  0.373830000000  
0.224159000000  0.315431000000  0.388284000000  
0.274747000000  0.267547000000  0.394627000000  
0.400937000000  0.225506000000  0.209035000000  
0.339037000000  0.236309000000  0.213588000000  
0.339261000000  0.236239000000  0.226397000000  
0.401154000000  0.225497000000  0.230941000000  
0.411454000000  0.225268000000  0.245807000000  
0.340416000000  0.235884000000  0.252887000000  
0.340742000000  0.235784000000  0.266983000000  
0.412757000000  0.225270000000  0.274076000000  
0.401935000000  0.225465000000  0.288824000000  
0.339572000000  0.236143000000  0.293438000000  
0.339714000000  0.236099000000  0.306214000000  
0.400597000000  0.225522000000  0.310752000000  
0.410946000000  0.225269000000  0.325273000000  
0.338875000000  0.236359000000  0.332547000000  
0.339452000000  0.236180000000  0.346395000000  
0.411357000000  0.225268000000  0.353105000000  
0.411683000000  0.225268000000  0.367033000000  
0.339979000000  0.236017000000  0.373679000000  
0.339625000000  0.236126000000  0.387547000000  
0.411525000000  0.225268000000  0.394737000000  
0.555919000000  0.272681000000  0.209070000000  
0.511334000000  0.246467000000  0.220084000000  
0.641789000000  0.415412000000  0.220054000000  
0.556105000000  0.272820000000  0.230986000000  
0.548177000000  0.267131000000  0.245831000000  
0.483517000000  0.236007000000  0.252331000000  
0.483839000000  0.236106000000  0.267610000000  
0.548459000000  0.267324000000  0.274126000000  
0.556347000000  0.273002000000  0.288913000000  
0.511604000000  0.246588000000  0.299865000000  
0.641786000000  0.415387000000  0.299833000000  
0.555507000000  0.272373000000  0.310771000000  
0.546559000000  0.266030000000  0.325272000000  
0.643830000000  0.443199000000  0.331627000000  
0.643833000000  0.443731000000  0.346219000000  
0.548165000000  0.267122000000  0.353113000000  
0.548430000000  0.267305000000  0.367013000000  
0.483629000000  0.236041000000  0.373830000000  
0.483707000000  0.236066000000  0.388284000000  
0.547560000000  0.266708000000  0.394627000000  
0.628890000000  0.367063000000  0.209035000000  
0.598883000000  0.314801000000  0.213588000000  
0.599023000000  0.314981000000  0.226397000000  
0.628966000000  0.367255000000  0.230941000000  
0.632380000000  0.376436000000  0.245807000000  
0.599738000000  0.315909000000  0.252887000000  
0.599938000000  0.316171000000  0.266983000000  
0.632780000000  0.377607000000  0.274076000000  
0.629240000000  0.367947000000  0.288824000000  
0.599216000000  0.315230000000  0.293438000000  
0.599304000000  0.315345000000  0.306214000000  
0.628769000000  0.366763000000  0.310752000000  
0.632222000000  0.375981000000  0.325273000000  
0.598782000000  0.314671000000  0.332547000000  
0.599141000000  0.315134000000  0.346395000000  
0.632350000000  0.376349000000  0.353105000000  
0.632451000000  0.376642000000  0.367033000000  
0.599468000000  0.315558000000  0.373679000000  
0.599249000000  0.315273000000  0.387547000000  
0.632402000000  0.376500000000  0.394737000000  
0.629277000000  0.520849000000  0.409070000000  
0.641897000000  0.472701000000  0.420084000000  
0.512081000000  0.642086000000  0.420054000000  
0.629194000000  0.521059000000  0.430986000000  
0.632474000000  0.512180000000  0.445831000000  
0.643834000000  0.444483000000  0.452331000000  
0.643834000000  0.444803000000  0.467610000000  
0.632366000000  0.512492000000  0.474126000000  
0.629086000000  0.521333000000  0.488913000000  
0.641859000000  0.472981000000  0.499865000000  
0.512106000000  0.642074000000  0.499833000000  
0.629459000000  0.520384000000  0.510771000000  
0.633082000000  0.510386000000  0.525272000000  
0.484731000000  0.652506000000  0.531627000000  
0.484196000000  0.652672000000  0.546219000000  
0.632478000000  0.512166000000  0.553113000000  
0.632377000000  0.512461000000  0.567013000000  
0.643834000000  0.444594000000  0.573830000000  
0.643834000000  0.444672000000  0.588284000000  
0.632708000000  0.511495000000  0.594627000000  
0.556783000000  0.615558000000  0.409035000000  
0.600138000000  0.572456000000  0.413588000000  
0.600000000000  0.572637000000  0.426397000000  
0.556613000000  0.615686000000  0.430941000000  
0.548423000000  0.621590000000  0.445807000000  
0.599287000000  0.573566000000  0.452887000000  
0.599085000000  0.573827000000  0.466983000000  
0.547368000000  0.622311000000  0.474076000000  
0.556002000000  0.616146000000  0.488824000000  
0.599809000000  0.572887000000  0.493438000000  
0.599721000000  0.573002000000  0.506214000000  
0.557048000000  0.615357000000  0.510752000000  
0.548833000000  0.621307000000  0.525273000000  
0.600238000000  0.572325000000  0.532547000000  
0.599883000000  0.572791000000  0.546395000000  
0.548501000000  0.621536000000  0.553105000000  
0.548238000000  0.621717000000  0.567033000000  
0.599557000000  0.573215000000  0.573679000000  
0.599776000000  0.572931000000  0.587547000000  
0.548366000000  0.621629000000  0.594737000000  
0.402041000000  0.663429000000  0.409070000000  
0.454425000000  0.659886000000  0.420084000000  
0.243739000000  0.595625000000  0.420054000000  
0.401803000000  0.663419000000  0.430986000000  
0.411757000000  0.663621000000  0.445831000000  
0.483439000000  0.652906000000  0.452331000000  
0.483117000000  0.653004000000  0.467610000000  
0.411410000000  0.663621000000  0.474126000000  
0.401494000000  0.663406000000  0.488913000000  
0.454132000000  0.659938000000  0.499865000000  
0.243758000000  0.595644000000  0.499833000000  
0.402565000000  0.663449000000  0.510771000000  
0.413752000000  0.663613000000  0.525272000000  
0.224795000000  0.574279000000  0.531627000000  
0.224462000000  0.573850000000  0.546219000000  
0.411773000000  0.663621000000  0.553113000000  
0.411445000000  0.663621000000  0.567013000000  
0.483327000000  0.652940000000  0.573830000000  
0.483249000000  0.652964000000  0.588284000000  
0.412520000000  0.663620000000  0.594627000000  
0.284266000000  0.627580000000  0.409035000000  
0.341067000000  0.653203000000  0.413588000000  
0.340843000000  0.653135000000  0.426397000000  
0.284085000000  0.627467000000  0.430941000000  
0.275609000000  0.621934000000  0.445807000000  
0.339687000000  0.652782000000  0.452887000000  
0.339361000000  0.652681000000  0.466983000000  
0.274556000000  0.621210000000  0.474076000000  
0.283433000000  0.627060000000  0.488824000000  
0.340531000000  0.653041000000  0.493438000000  
0.340388000000  0.652997000000  0.506214000000  
0.284551000000  0.627756000000  0.510752000000  
0.276021000000  0.622215000000  0.525273000000  
0.341230000000  0.653252000000  0.532547000000  
0.340651000000  0.653077000000  0.546395000000  
0.275688000000  0.621988000000  0.553105000000  
0.275424000000  0.621808000000  0.567033000000  
0.340124000000  0.652916000000  0.573679000000  
0.340478000000  0.653024000000  0.587547000000  
0.275552000000  0.621895000000  0.594737000000  
0.188243000000  0.503380000000  0.409070000000  
0.207997000000  0.549338000000  0.420084000000  
0.207603000000  0.340238000000  0.420054000000  
0.188179000000  0.503163000000  0.430986000000  
0.191051000000  0.512167000000  0.445831000000  
0.223992000000  0.573242000000  0.452331000000  
0.223794000000  0.572983000000  0.467610000000  
0.190944000000  0.511855000000  0.474126000000  
0.188096000000  0.502882000000  0.488913000000  
0.207855000000  0.549090000000  0.499865000000  
0.207589000000  0.340261000000  0.499833000000  
0.188384000000  0.503857000000  0.510771000000  
0.191676000000  0.513956000000  0.525272000000  
0.223244000000  0.316626000000  0.531627000000  
0.223574000000  0.316193000000  0.546219000000  
0.191056000000  0.512181000000  0.553113000000  
0.190955000000  0.511886000000  0.567013000000  
0.223923000000  0.573152000000  0.573830000000  
0.223875000000  0.573089000000  0.588284000000  
0.191288000000  0.512852000000  0.594627000000  
0.187948000000  0.386515000000  0.409035000000  
0.179698000000  0.445453000000  0.413588000000  
0.179697000000  0.445230000000  0.426397000000  
0.188006000000  0.386317000000  0.430941000000  
0.190958000000  0.376994000000  0.445807000000  
0.179696000000  0.444083000000  0.452887000000  
0.179696000000  0.443759000000  0.466983000000  
0.191362000000  0.375824000000  0.474076000000  
0.188214000000  0.385605000000  0.488824000000  
0.179696000000  0.444921000000  0.493438000000  
0.179696000000  0.444779000000  0.506214000000  
0.187858000000  0.386825000000  0.510752000000  
0.190802000000  0.377451000000  0.525273000000  
0.179699000000  0.445614000000  0.532547000000  
0.179696000000  0.445040000000  0.546395000000  
0.190928000000  0.377081000000  0.553105000000  
0.191028000000  0.376789000000  0.567033000000  
0.179695000000  0.444516000000  0.573679000000  
0.179696000000  0.444868000000  0.587547000000  
0.190980000000  0.376931000000  0.594737000000  
0.283344000000  0.261884000000  0.409070000000  
0.243169000000  0.293830000000  0.420084000000  
0.453611000000  0.228860000000  0.420054000000  
0.283543000000  0.261760000000  0.430986000000  
0.275364000000  0.267123000000  0.445831000000  
0.224041000000  0.315584000000  0.452331000000  
0.224240000000  0.315326000000  0.467610000000  
0.275645000000  0.266930000000  0.474126000000  
0.283800000000  0.261599000000  0.488913000000  
0.243375000000  0.293626000000  0.499865000000  
0.453584000000  0.228856000000  0.499833000000  
0.282908000000  0.262159000000  0.510771000000  
0.273755000000  0.268236000000  0.525272000000  
0.482222000000  0.235613000000  0.531627000000  
0.482759000000  0.235776000000  0.546219000000  
0.275351000000  0.267131000000  0.553113000000  
0.275617000000  0.266949000000  0.567013000000  
0.224110000000  0.315494000000  0.573830000000  
0.224159000000  0.315431000000  0.588284000000  
0.274747000000  0.267547000000  0.594627000000  
0.400937000000  0.225506000000  0.409035000000  
0.339037000000  0.236309000000  0.413588000000  
0.339261000000  0.236239000000  0.426397000000  
0.401154000000  0.225497000000  0.430941000000  
0.411454000000  0.225268000000  0.445807000000  
0.340416000000  0.235884000000  0.452887000000  
0.340742000000  0.235784000000  0.466983000000  
0.412757000000  0.225270000000  0.474076000000  
0.401935000000  0.225465000000  0.488824000000  
0.339572000000  0.236143000000  0.493438000000  
0.339714000000  0.236099000000  0.506214000000  
0.400597000000  0.225522000000  0.510752000000  
0.410946000000  0.225269000000  0.525273000000  
0.338875000000  0.236359000000  0.532547000000  
0.339452000000  0.236180000000  0.546395000000  
0.411357000000  0.225268000000  0.553105000000  
0.411683000000  0.225268000000  0.567033000000  
0.339979000000  0.236017000000  0.573679000000  
0.339625000000  0.236126000000  0.587547000000  
0.411525000000  0.225268000000  0.594737000000  
0.555919000000  0.272681000000  0.409070000000  
0.511334000000  0.246467000000  0.420084000000  
0.641789000000  0.415412000000  0.420054000000  
0.556105000000  0.272820000000  0.430986000000  
0.548177000000  0.267131000000  0.445831000000  
0.483517000000  0.236007000000  0.452331000000  
0.483839000000  0.236106000000  0.467610000000  
0.548459000000  0.267324000000  0.474126000000  
0.556347000000  0.273002000000  0.488913000000  
0.511604000000  0.246588000000  0.499865000000  
0.641786000000  0.415387000000  0.499833000000  
0.555507000000  0.272373000000  0.510771000000  
0.546559000000  0.266030000000  0.525272000000  
0.643830000000  0.443199000000  0.531627000000  
0.643833000000  0.443731000000  0.546219000000  
0.548165000000  0.267122000000  0.553113000000  
0.548430000000  0.267305000000  0.567013000000  
0.483629000000  0.236041000000  0.573830000000  
0.483707000000  0.236066000000  0.588284000000  
0.547560000000  0.266708000000  0.594627000000  
0.628890000000  0.367063000000  0.409035000000  
0.598883000000  0.314801000000  0.413588000000  
0.599023000000  0.314981000000  0.426397000000  
0.628966000000  0.367255000000  0.430941000000  
0.632380000000  0.376436000000  0.445807000000  
0.599738000000  0.315909000000  0.452887000000  
0.599938000000  0.316171000000  0.466983000000  
0.632780000000  0.377607000000  0.474076000000  
0.629240000000  0.367947000000  0.488824000000  
0.599216000000  0.315230000000  0.493438000000  
0.599304000000  0.315345000000  0.506214000000  
0.628769000000  0.366763000000  0.510752000000  
0.632222000000  0.375981000000  0.525273000000  
0.598782000000  0.314671000000  0.532547000000  
0.599141000000  0.315134000000  0.546395000000  
0.632350000000  0.376349000000  0.553105000000  
0.632451000000  0.376642000000  0.567033000000  
0.599468000000  0.315558000000  0.573679000000  
0.599249000000  0.315273000000  0.587547000000  
0.632402000000  0.376500000000  0.594737000000  
0.629277000000  0.520849000000  0.609070000000  
0.641897000000  0.472701000000  0.620084000000  
0.512081000000  0.642086000000  0.620054000000  
0.629194000000  0.521059000000  0.630986000000  
0.632474000000  0.512180000000  0.645831000000  
0.643834000000  0.444483000000  0.652331000000  
0.643834000000  0.444803000000  0.667610000000  
0.632366000000  0.512492000000  0.674126000000  