ATOMIC_SPECIES
C 12.011 C_ONCV_PBE-1.0.upf

NUMERICAL_ORBITAL
C_gga_8au_60Ry_2s2p1d.orb

LATTICE_CONSTANT
1

LATTICE_VECTORS
32.1253418058417  0.00000000000000  0.000000000000000
0.00000000000000  34.0150677944206  0.000000000000000
0.00000000000000  0.00000000000000  202.8365201085729

ATOMIC_POSITIONS
Direct

C
0
1000
0.6292770000  0.5208490000  0.0090700000  1  1  1
0.6418970000  0.4727010000  0.0200840000  1  1  1
0.5120810000  0.6420860000  0.0200540000  1  1  1
0.6291940000  0.5210590000  0.0309860000  1  1  1
0.6324740000  0.5121800000  0.0458310000  1  1  1
0.6438340000  0.4444830000  0.0523310000  1  1  1
0.6438340000  0.4448030000  0.0676100000  1  1  1
0.6323660000  0.5124920000  0.0741260000  1  1  1
0.6290860000  0.5213330000  0.0889130000  1  1  1
0.6418590000  0.4729810000  0.0998650000  1  1  1
0.5121060000  0.6420740000  0.0998330000  1  1  1
0.6294590000  0.5203840000  0.1107710000  1  1  1
0.6330820000  0.5103860000  0.1252720000  1  1  1
0.4847310000  0.6525060000  0.1316270000  1  1  1
0.4841960000  0.6526720000  0.1462190000  1  1  1
0.6324780000  0.5121660000  0.1531130000  1  1  1
0.6323770000  0.5124610000  0.1670130000  1  1  1
0.6438340000  0.4445940000  0.1738300000  1  1  1
0.6438340000  0.4446720000  0.1882840000  1  1  1
0.6327080000  0.5114950000  0.1946270000  1  1  1
0.5567830000  0.6155580000  0.0090350000  1  1  1
0.6001380000  0.5724560000  0.0135880000  1  1  1
0.6000000000  0.5726370000  0.0263970000  1  1  1
0.5566130000  0.6156860000  0.0309410000  1  1  1
0.5484230000  0.6215900000  0.0458070000  1  1  1
0.5992870000  0.5735660000  0.0528870000  1  1  1
0.5990850000  0.5738270000  0.0669830000  1  1  1
0.5473680000  0.6223110000  0.0740760000  1  1  1
0.5560020000  0.6161460000  0.0888240000  1  1  1
0.5998090000  0.5728870000  0.0934380000  1  1  1
0.5997210000  0.5730020000  0.1062140000  1  1  1
0.5570480000  0.6153570000  0.1107520000  1  1  1
0.5488330000  0.6213070000  0.1252730000  1  1  1
0.6002380000  0.5723250000  0.1325470000  1  1  1
0.5998830000  0.5727910000  0.1463950000  1  1  1
0.5485010000  0.6215360000  0.1531050000  1  1  1
0.5482380000  0.6217170000  0.1670330000  1  1  1
0.5995570000  0.5732150000  0.1736790000  1  1  1
0.5997760000  0.5729310000  0.1875470000  1  1  1
0.5483660000  0.6216290000  0.1947370000  1  1  1
0.4020410000  0.6634290000  0.0090700000  1  1  1
0.4544250000  0.6598860000  0.0200840000  1  1  1
0.2437390000  0.5956250000  0.0200540000  1  1  1
0.4018030000  0.6634190000  0.0309860000  1  1  1
0.4117570000  0.6636210000  0.0458310000  1  1  1
0.4834390000  0.6529060000  0.0523310000  1  1  1
0.4831170000  0.6530040000  0.0676100000  1  1  1
0.4114100000  0.6636210000  0.0741260000  1  1  1
0.4014940000  0.6634060000  0.0889130000  1  1  1
0.4541320000  0.6599380000  0.0998650000  1  1  1
0.2437580000  0.5956440000  0.0998330000  1  1  1
0.4025650000  0.6634490000  0.1107710000  1  1  1
0.4137520000  0.6636130000  0.1252720000  1  1  1
0.2247950000  0.5742790000  0.1316270000  1  1  1
0.2244620000  0.5738500000  0.1462190000  1  1  1
0.4117730000  0.6636210000  0.1531130000  1  1  1
0.4114450000  0.6636210000  0.1670130000  1  1  1
0.4833270000  0.6529400000  0.1738300000  1  1  1
0.4832490000  0.6529640000  0.1882840000  1  1  1
0.4125200000  0.6636200000  0.1946270000  1  1  1
0.2842660000  0.6275800000  0.0090350000  1  1  1
0.3410670000  0.6532030000  0.0135880000  1  1  1
0.3408430000  0.6531350000  0.0263970000  1  1  1
0.2840850000  0.6274670000  0.0309410000  1  1  1
0.2756090000  0.6219340000  0.0458070000  1  1  1
0.3396870000  0.6527820000  0.0528870000  1  1  1
0.3393610000  0.6526810000  0.0669830000  1  1  1
0.2745560000  0.6212100000  0.0740760000  1  1  1
0.2834330000  0.6270600000  0.0888240000  1  1  1
0.3405310000  0.6530410000  0.0934380000  1  1  1
0.3403880000  0.6529970000  0.1062140000  1  1  1
0.2845510000  0.6277560000  0.1107520000  1  1  1
0.2760210000  0.6222150000  0.1252730000  1  1  1
0.3412300000  0.6532520000  0.1325470000  1  1  1
0.3406510000  0.6530770000  0.1463950000  1  1  1
0.2756880000  0.6219880000  0.1531050000  1  1  1
0.2754240000  0.6218080000  0.1670330000  1  1  1
0.3401240000  0.6529160000  0.1736790000  1  1  1
0.3404780000  0.6530240000  0.1875470000  1  1  1
0.2755520000  0.6218950000  0.1947370000  1  1  1
0.1882430000  0.5033800000  0.0090700000  1  1  1
0.2079970000  0.5493380000  0.0200840000  1  1  1
0.2076030000  0.3402380000  0.0200540000  1  1  1
0.1881790000  0.5031630000  0.0309860000  1  1  1
0.1910510000  0.5121670000  0.0458310000  1  1  1
0.2239920000  0.5732420000  0.0523310000  1  1  1
0.2237940000  0.5729830000  0.0676100000  1  1  1
0.1909440000  0.5118550000  0.0741260000  1  1  1
0.1880960000  0.5028820000  0.0889130000  1  1  1
0.2078550000  0.5490900000  0.0998650000  1  1  1
0.2075890000  0.3402610000  0.0998330000  1  1  1
0.1883840000  0.5038570000  0.1107710000  1  1  1
0.1916760000  0.5139560000  0.1252720000  1  1  1
0.2232440000  0.3166260000  0.1316270000  1  1  1
0.2235740000  0.3161930000  0.1462190000  1  1  1
0.1910560000  0.5121810000  0.1531130000  1  1  1
0.1909550000  0.5118860000  0.1670130000  1  1  1
0.2239230000  0.5731520000  0.1738300000  1  1  1
0.2238750000  0.5730890000  0.1882840000  1  1  1
0.1912880000  0.5128520000  0.1946270000  1  1  1
0.1879480000  0.3865150000  0.0090350000  1  1  1
0.1796980000  0.4454530000  0.0135880000  1  1  1
0.1796970000  0.4452300000  0.0263970000  1  1  1
0.1880060000  0.3863170000  0.0309410000  1  1  1
0.1909580000  0.3769940000  0.0458070000  1  1  1
0.1796960000  0.4440830000  0.0528870000  1  1  1
0.1796960000  0.4437590000  0.0669830000  1  1  1
0.1913620000  0.3758240000  0.0740760000  1  1  1
0.1882140000  0.3856050000  0.0888240000  1  1  1
0.1796960000  0.4449210000  0.0934380000  1  1  1
0.1796960000  0.4447790000  0.1062140000  1  1  1
0.1878580000  0.3868250000  0.1107520000  1  1  1
0.1908020000  0.3774510000  0.1252730000  1  1  1
0.1796990000  0.4456140000  0.1325470000  1  1  1
0.1796960000  0.4450400000  0.1463950000  1  1  1
0.1909280000  0.3770810000  0.1531050000  1  1  1
0.1910280000  0.3767890000  0.1670330000  1  1  1
0.1796950000  0.4445160000  0.1736790000  1  1  1
0.1796960000  0.4448680000  0.1875470000  1  1  1
0.1909800000  0.3769310000  0.1947370000  1  1  1
0.2833440000  0.2618840000  0.0090700000  1  1  1
0.2431690000  0.2938300000  0.0200840000  1  1  1
0.4536110000  0.2288600000  0.0200540000  1  1  1
0.2835430000  0.2617600000  0.0309860000  1  1  1
0.2753640000  0.2671230000  0.0458310000  1  1  1
0.2240410000  0.3155840000  0.0523310000  1  1  1
0.2242400000  0.3153260000  0.0676100000  1  1  1
0.2756450000  0.2669300000  0.0741260000  1  1  1
0.2838000000  0.2615990000  0.0889130000  1  1  1
0.2433750000  0.2936260000  0.0998650000  1  1  1
0.4535840000  0.2288560000  0.0998330000  1  1  1
0.2829080000  0.2621590000  0.1107710000  1  1  1
0.2737550000  0.2682360000  0.1252720000  1  1  1
0.4822220000  0.2356130000  0.1316270000  1  1  1
0.4827590000  0.2357760000  0.1462190000  1  1  1
0.2753510000  0.2671310000  0.1531130000  1  1  1
0.2756170000  0.2669490000  0.1670130000  1  1  1
0.2241100000  0.3154940000  0.1738300000  1  1  1
0.2241590000  0.3154310000  0.1882840000  1  1  1
0.2747470000  0.2675470000  0.1946270000  1  1  1
0.4009370000  0.2255060000  0.0090350000  1  1  1
0.3390370000  0.2363090000  0.0135880000  1  1  1
0.3392610000  0.2362390000  0.0263970000  1  1  1
0.4011540000  0.2254970000  0.0309410000  1  1  1
0.4114540000  0.2252680000  0.0458070000  1  1  1
0.3404160000  0.2358840000  0.0528870000  1  1  1
0.3407420000  0.2357840000  0.0669830000  1  1  1
0.4127570000  0.2252700000  0.0740760000  1  1  1
0.4019350000  0.2254650000  0.0888240000  1  1  1
0.3395720000  0.2361430000  0.0934380000  1  1  1
0.3397140000  0.2360990000  0.1062140000  1  1  1
0.4005970000  0.2255220000  0.1107520000  1  1  1
0.4109460000  0.2252690000  0.1252730000  1  1  1
0.3388750000  0.2363590000  0.1325470000  1  1  1
0.3394520000  0.2361800000  0.1463950000  1  1  1
0.4113570000  0.2252680000  0.1531050000  1  1  1
0.4116830000  0.2252680000  0.1670330000  1  1  1
0.3399790000  0.2360170000  0.1736790000  1  1  1
0.3396250000  0.2361260000  0.1875470000  1  1  1
0.4115250000  0.2252680000  0.1947370000  1  1  1
0.5559190000  0.2726810000  0.0090700000  1  1  1
0.5113340000  0.2464670000  0.0200840000  1  1  1
0.6417890000  0.4154120000  0.0200540000  1  1  1
0.5561050000  0.2728200000  0.0309860000  1  1  1
0.5481770000  0.2671310000  0.0458310000  1  1  1
0.4835170000  0.2360070000  0.0523310000  1  1  1
0.4838390000  0.2361060000  0.0676100000  1  1  1
0.5484590000  0.2673240000  0.0741260000  1  1  1
0.5563470000  0.2730020000  0.0889130000  1  1  1
0.5116040000  0.2465880000  0.0998650000  1  1  1
0.6417860000  0.4153870000  0.0998330000  1  1  1
0.5555070000  0.2723730000  0.1107710000  1  1  1
0.5465590000  0.2660300000  0.1252720000  1  1  1
0.6438300000  0.4431990000  0.1316270000  1  1  1
0.6438330000  0.4437310000  0.1462190000  1  1  1
0.5481650000  0.2671220000  0.1531130000  1  1  1
0.5484300000  0.2673050000  0.1670130000  1  1  1
0.4836290000  0.2360410000  0.1738300000  1  1  1
0.4837070000  0.2360660000  0.1882840000  1  1  1
0.5475600000  0.2667080000  0.1946270000  1  1  1
0.6288900000  0.3670630000  0.0090350000  1  1  1
0.5988830000  0.3148010000  0.0135880000  1  1  1
0.5990230000  0.3149810000  0.0263970000  1  1  1
0.6289660000  0.3672550000  0.0309410000  1  1  1
0.6323800000  0.3764360000  0.0458070000  1  1  1
0.5997380000  0.3159090000  0.0528870000  1  1  1
0.5999380000  0.3161710000  0.0669830000  1  1  1
0.6327800000  0.3776070000  0.0740760000  1  1  1
0.6292400000  0.3679470000  0.0888240000  1  1  1
0.5992160000  0.3152300000  0.0934380000  1  1  1
0.5993040000  0.3153450000  0.1062140000  1  1  1
0.6287690000  0.3667630000  0.1107520000  1  1  1
0.6322220000  0.3759810000  0.1252730000  1  1  1
0.5987820000  0.3146710000  0.1325470000  1  1  1
0.5991410000  0.3151340000  0.1463950000  1  1  1
0.6323500000  0.3763490000  0.1531050000  1  1  1
0.6324510000  0.3766420000  0.1670330000  1  1  1
0.5994680000  0.3155580000  0.1736790000  1  1  1
0.5992490000  0.3152730000  0.1875470000  1  1  1
0.6324020000  0.3765000000  0.1947370000  1  1  1
0.6292770000  0.5208490000  0.2090700000  1  1  1
0.6418970000  0.4727010000  0.2200840000  1  1  1
0.5120810000  0.6420860000  0.2200540000  1  1  1
0.6291940000  0.5210590000  0.2309860000  1  1  1
0.6324740000  0.5121800000  0.2458310000  1  1  1
0.6438340000  0.4444830000  0.2523310000  1  1  1
0.6438340000  0.4448030000  0.2676100000  1  1  1
0.6323660000  0.5124920000  0.2741260000  1  1  1
0.6290860000  0.5213330000  0.2889130000  1  1  1
0.6418590000  0.4729810000  0.2998650000  1  1  1
0.5121060000  0.6420740000  0.2998330000  1  1  1
0.6294590000  0.5203840000  0.3107710000  1  1  1
0.6330820000  0.5103860000  0.3252720000  1  1  1
0.4847310000  0.6525060000  0.3316270000  1  1  1
0.4841960000  0.6526720000  0.3462190000  1  1  1
0.6324780000  0.5121660000  0.3531130000  1  1  1
0.6323770000  0.5124610000  0.3670130000  1  1  1
0.6438340000  0.4445940000  0.3738300000  1  1  1
0.6438340000  0.4446720000  0.3882840000  1  1  1
0.6327080000  0.5114950000  0.3946270000  1  1  1
0.5567830000  0.6155580000  0.2090350000  1  1  1
0.6001380000  0.5724560000  0.2135880000  1  1  1
0.6000000000  0.5726370000  0.2263970000  1  1  1
0.5566130000  0.6156860000  0.2309410000  1  1  1
0.5484230000  0.6215900000  0.2458070000  1  1  1
0.5992870000  0.5735660000  0.2528870000  1  1  1
0.5990850000  0.5738270000  0.2669830000  1  1  1
0.5473680000  0.6223110000  0.2740760000  1  1  1
0.5560020000  0.6161460000  0.2888240000  1  1  1
0.5998090000  0.5728870000  0.2934380000  1  1  1
0.5997210000  0.5730020000  0.3062140000  1  1  1
0.5570480000  0.6153570000  0.3107520000  1  1  1
0.5488330000  0.6213070000  0.3252730000  1  1  1
0.6002380000  0.5723250000  0.3325470000  1  1  1
0.5998830000  0.5727910000  0.3463950000  1  1  1
0.5485010000  0.6215360000  0.3531050000  1  1  1
0.5482380000  0.6217170000  0.3670330000  1  1  1
0.5995570000  0.5732150000  0.3736790000  1  1  1
0.5997760000  0.5729310000  0.3875470000  1  1  1
0.5483660000  0.6216290000  0.3947370000  1  1  1
0.4020410000  0.6634290000  0.2090700000  1  1  1
0.4544250000  0.6598860000  0.2200840000  1  1  1
0.2437390000  0.5956250000  0.2200540000  1  1  1
0.4018030000  0.6634190000  0.2309860000  1  1  1
0.4117570000  0.6636210000  0.2458310000  1  1  1
0.4834390000  0.6529060000  0.2523310000  1  1  1
0.4831170000  0.6530040000  0.2676100000  1  1  1
0.4114100000  0.6636210000  0.2741260000  1  1  1
0.4014940000  0.6634060000  0.2889130000  1  1  1
0.4541320000  0.6599380000  0.2998650000  1  1  1
0.2437580000  0.5956440000  0.2998330000  1  1  1
0.4025650000  0.6634490000  0.3107710000  1  1  1
0.4137520000  0.6636130000  0.3252720000  1  1  1
0.2247950000  0.5742790000  0.3316270000  1  1  1
0.2244620000  0.5738500000  0.3462190000  1  1  1
0.4117730000  0.6636210000  0.3531130000  1  1  1
0.4114450000  0.6636210000  0.3670130000  1  1  1
0.4833270000  0.6529400000  0.3738300000  1  1  1
0.4832490000  0.6529640000  0.3882840000  1  1  1
0.4125200000  0.6636200000  0.3946270000  1  1  1
0.2842660000  0.6275800000  0.2090350000  1  1  1
0.3410670000  0.6532030000  0.2135880000  1  1  1
0.3408430000  0.6531350000  0.2263970000  1  1  1
0.2840850000  0.6274670000  0.2309410000  1  1  1
0.2756090000  0.6219340000  0.2458070000  1  1  1
0.3396870000  0.6527820000  0.2528870000  1  1  1
0.3393610000  0.6526810000  0.2669830000  1  1  1
0.2745560000  0.6212100000  0.2740760000  1  1  1
0.2834330000  0.6270600000  0.2888240000  1  1  1
0.3405310000  0.6530410000  0.2934380000  1  1  1
0.3403880000  0.6529970000  0.3062140000  1  1  1
0.2845510000  0.6277560000  0.3107520000  1  1  1
0.2760210000  0.6222150000  0.3252730000  1  1  1
0.3412300000  0.6532520000  0.3325470000  1  1  1
0.3406510000  0.6530770000  0.3463950000  1  1  1
0.2756880000  0.6219880000  0.3531050000  1  1  1
0.2754240000  0.6218080000  0.3670330000  1  1  1
0.3401240000  0.6529160000  0.3736790000  1  1  1
0.3404780000  0.6530240000  0.3875470000  1  1  1
0.2755520000  0.6218950000  0.3947370000  1  1  1
0.1882430000  0.5033800000  0.2090700000  1  1  1
0.2079970000  0.5493380000  0.2200840000  1  1  1
0.2076030000  0.3402380000  0.2200540000  1  1  1
0.1881790000  0.5031630000  0.2309860000  1  1  1
0.1910510000  0.5121670000  0.2458310000  1  1  1
0.2239920000  0.5732420000  0.2523310000  1  1  1
0.2237940000  0.5729830000  0.2676100000  1  1  1
0.1909440000  0.5118550000  0.2741260000  1  1  1
0.1880960000  0.5028820000  0.2889130000  1  1  1
0.2078550000  0.5490900000  0.2998650000  1  1  1
0.2075890000  0.3402610000  0.2998330000  1  1  1
0.1883840000  0.5038570000  0.3107710000  1  1  1
0.1916760000  0.5139560000  0.3252720000  1  1  1
0.2232440000  0.3166260000  0.3316270000  1  1  1
0.2235740000  0.3161930000  0.3462190000  1  1  1
0.1910560000  0.5121810000  0.3531130000  1  1  1
0.1909550000  0.5118860000  0.3670130000  1  1  1
0.2239230000  0.5731520000  0.3738300000  1  1  1
0.2238750000  0.5730890000  0.3882840000  1  1  1
0.1912880000  0.5128520000  0.3946270000  1  1  1
0.1879480000  0.3865150000  0.2090350000  1  1  1
0.1796980000  0.4454530000  0.2135880000  1  1  1
0.1796970000  0.4452300000  0.2263970000  1  1  1
0.1880060000  0.3863170000  0.2309410000  1  1  1
0.1909580000  0.3769940000  0.2458070000  1  1  1
0.1796960000  0.4440830000  0.2528870000  1  1  1
0.1796960000  0.4437590000  0.2669830000  1  1  1
0.1913620000  0.3758240000  0.2740760000  1  1  1
0.1882140000  0.3856050000  0.2888240000  1  1  1
0.1796960000  0.4449210000  0.2934380000  1  1  1
0.1796960000  0.4447790000  0.3062140000  1  1  1
0.1878580000  0.3868250000  0.3107520000  1  1  1
0.1908020000  0.3774510000  0.3252730000  1  1  1
0.1796990000  0.4456140000  0.3325470000  1  1  1
0.1796960000  0.4450400000  0.3463950000  1  1  1
0.1909280000  0.3770810000  0.3531050000  1  1  1
0.1910280000  0.3767890000  0.3670330000  1  1  1
0.1796950000  0.4445160000  0.3736790000  1  1  1
0.1796960000  0.4448680000  0.3875470000  1  1  1
0.1909800000  0.3769310000  0.3947370000  1  1  1
0.2833440000  0.2618840000  0.2090700000  1  1  1
0.2431690000  0.2938300000  0.2200840000  1  1  1
0.4536110000  0.2288600000  0.2200540000  1  1  1
0.2835430000  0.2617600000  0.2309860000  1  1  1
0.2753640000  0.2671230000  0.2458310000  1  1  1
0.2240410000  0.3155840000  0.2523310000  1  1  1
0.2242400000  0.3153260000  0.2676100000  1  1  1
0.2756450000  0.2669300000  0.2741260000  1  1  1
0.2838000000  0.2615990000  0.2889130000  1  1  1
0.2433750000  0.2936260000  0.2998650000  1  1  1
0.4535840000  0.2288560000  0.2998330000  1  1  1
0.2829080000  0.2621590000  0.3107710000  1  1  1
0.2737550000  0.2682360000  0.3252720000  1  1  1
0.4822220000  0.2356130000  0.3316270000  1  1  1
0.4827590000  0.2357760000  0.3462190000  1  1  1
0.2753510000  0.2671310000  0.3531130000  1  1  1
0.2756170000  0.2669490000  0.3670130000  1  1  1
0.2241100000  0.3154940000  0.3738300000  1  1  1
0.2241590000  0.3154310000  0.3882840000  1  1  1
0.2747470000  0.2675470000  0.3946270000  1  1  1
0.4009370000  0.2255060000  0.2090350000  1  1  1
0.3390370000  0.2363090000  0.2135880000  1  1  1
0.3392610000  0.2362390000  0.2263970000  1  1  1
0.4011540000  0.2254970000  0.2309410000  1  1  1
0.4114540000  0.2252680000  0.2458070000  1  1  1
0.3404160000  0.2358840000  0.2528870000  1  1  1
0.3407420000  0.2357840000  0.2669830000  1  1  1
0.4127570000  0.2252700000  0.2740760000  1  1  1
0.4019350000  0.2254650000  0.2888240000  1  1  1
0.3395720000  0.2361430000  0.2934380000  1  1  1
0.3397140000  0.2360990000  0.3062140000  1  1  1
0.4005970000  0.2255220000  0.3107520000  1  1  1
0.4109460000  0.2252690000  0.3252730000  1  1  1
0.3388750000  0.2363590000  0.3325470000  1  1  1
0.3394520000  0.2361800000  0.3463950000  1  1  1
0.4113570000  0.2252680000  0.3531050000  1  1  1
0.4116830000  0.2252680000  0.3670330000  1  1  1
0.3399790000  0.2360170000  0.3736790000  1  1  1
0.3396250000  0.2361260000  0.3875470000  1  1  1
0.4115250000  0.2252680000  0.3947370000  1  1  1
0.5559190000  0.2726810000  0.2090700000  1  1  1
0.5113340000  0.2464670000  0.2200840000  1  1  1
0.6417890000  0.4154120000  0.2200540000  1  1  1
0.5561050000  0.2728200000  0.2309860000  1  1  1
0.5481770000  0.2671310000  0.2458310000  1  1  1
0.4835170000  0.2360070000  0.2523310000  1  1  1
0.4838390000  0.2361060000  0.2676100000  1  1  1
0.5484590000  0.2673240000  0.2741260000  1  1  1
0.5563470000  0.2730020000  0.2889130000  1  1  1
0.5116040000  0.2465880000  0.2998650000  1  1  1
0.6417860000  0.4153870000  0.2998330000  1  1  1
0.5555070000  0.2723730000  0.3107710000  1  1  1
0.5465590000  0.2660300000  0.3252720000  1  1  1
0.6438300000  0.4431990000  0.3316270000  1  1  1
0.6438330000  0.4437310000  0.3462190000  1  1  1
0.5481650000  0.2671220000  0.3531130000  1  1  1
0.5484300000  0.2673050000  0.3670130000  1  1  1
0.4836290000  0.2360410000  0.3738300000  1  1  1
0.4837070000  0.2360660000  0.3882840000  1  1  1
0.5475600000  0.2667080000  0.3946270000  1  1  1
0.6288900000  0.3670630000  0.2090350000  1  1  1
0.5988830000  0.3148010000  0.2135880000  1  1  1
0.5990230000  0.3149810000  0.2263970000  1  1  1
0.6289660000  0.3672550000  0.2309410000  1  1  1
0.6323800000  0.3764360000  0.2458070000  1  1  1
0.5997380000  0.3159090000  0.2528870000  1  1  1
0.5999380000  0.3161710000  0.2669830000  1  1  1
0.6327800000  0.3776070000  0.2740760000  1  1  1
0.6292400000  0.3679470000  0.2888240000  1  1  1
0.5992160000  0.3152300000  0.2934380000  1  1  1
0.5993040000  0.3153450000  0.3062140000  1  1  1
0.6287690000  0.3667630000  0.3107520000  1  1  1
0.6322220000  0.3759810000  0.3252730000  1  1  1
0.5987820000  0.3146710000  0.3325470000  1  1  1
0.5991410000  0.3151340000  0.3463950000  1  1  1
0.6323500000  0.3763490000  0.3531050000  1  1  1
0.6324510000  0.3766420000  0.3670330000  1  1  1
0.5994680000  0.3155580000  0.3736790000  1  1  1
0.5992490000  0.3152730000  0.3875470000  1  1  1
0.6324020000  0.3765000000  0.3947370000  1  1  1
0.6292770000  0.5208490000  0.4090700000  1  1  1
0.6418970000  0.4727010000  0.4200840000  1  1  1
0.5120810000  0.6420860000  0.4200540000  1  1  1
0.6291940000  0.5210590000  0.4309860000  1  1  1
0.6324740000  0.5121800000  0.4458310000  1  1  1
0.6438340000  0.4444830000  0.4523310000  1  1  1
0.6438340000  0.4448030000  0.4676100000  1  1  1
0.6323660000  0.5124920000  0.4741260000  1  1  1
0.6290860000  0.5213330000  0.4889130000  1  1  1
0.6418590000  0.4729810000  0.4998650000  1  1  1
0.5121060000  0.6420740000  0.4998330000  1  1  1
0.6294590000  0.5203840000  0.5107710000  1  1  1
0.6330820000  0.5103860000  0.5252720000  1  1  1
0.4847310000  0.6525060000  0.5316270000  1  1  1
0.4841960000  0.6526720000  0.5462190000  1  1  1
0.6324780000  0.5121660000  0.5531130000  1  1  1
0.6323770000  0.5124610000  0.5670130000  1  1  1
0.6438340000  0.4445940000  0.5738300000  1  1  1
0.6438340000  0.4446720000  0.5882840000  1  1  1
0.6327080000  0.5114950000  0.5946270000  1  1  1
0.5567830000  0.6155580000  0.4090350000  1  1  1
0.6001380000  0.5724560000  0.4135880000  1  1  1
0.6000000000  0.5726370000  0.4263970000  1  1  1
0.5566130000  0.6156860000  0.4309410000  1  1  1
0.5484230000  0.6215900000  0.4458070000  1  1  1
0.5992870000  0.5735660000  0.4528870000  1  1  1
0.5990850000  0.5738270000  0.4669830000  1  1  1
0.5473680000  0.6223110000  0.4740760000  1  1  1
0.5560020000  0.6161460000  0.4888240000  1  1  1
0.5998090000  0.5728870000  0.4934380000  1  1  1
0.5997210000  0.5730020000  0.5062140000  1  1  1
0.5570480000  0.6153570000  0.5107520000  1  1  1
0.5488330000  0.6213070000  0.5252730000  1  1  1
0.6002380000  0.5723250000  0.5325470000  1  1  1
0.5998830000  0.5727910000  0.5463950000  1  1  1
0.5485010000  0.6215360000  0.5531050000  1  1  1
0.5482380000  0.6217170000  0.5670330000  1  1  1
0.5995570000  0.5732150000  0.5736790000  1  1  1
0.5997760000  0.5729310000  0.5875470000  1  1  1
0.5483660000  0.6216290000  0.5947370000  1  1  1
0.4020410000  0.6634290000  0.4090700000  1  1  1
0.4544250000  0.6598860000  0.4200840000  1  1  1
0.2437390000  0.5956250000  0.4200540000  1  1  1
0.4018030000  0.6634190000  0.4309860000  1  1  1
0.4117570000  0.6636210000  0.4458310000  1  1  1
0.4834390000  0.6529060000  0.4523310000  1  1  1
0.4831170000  0.6530040000  0.4676100000  1  1  1
0.4114100000  0.6636210000  0.4741260000  1  1  1
0.4014940000  0.6634060000  0.4889130000  1  1  1
0.4541320000  0.6599380000  0.4998650000  1  1  1
0.2437580000  0.5956440000  0.4998330000  1  1  1
0.4025650000  0.6634490000  0.5107710000  1  1  1
0.4137520000  0.6636130000  0.5252720000  1  1  1
0.2247950000  0.5742790000  0.5316270000  1  1  1
0.2244620000  0.5738500000  0.5462190000  1  1  1
0.4117730000  0.6636210000  0.5531130000  1  1  1
0.4114450000  0.6636210000  0.5670130000  1  1  1
0.4833270000  0.6529400000  0.5738300000  1  1  1
0.4832490000  0.6529640000  0.5882840000  1  1  1
0.4125200000  0.6636200000  0.5946270000  1  1  1
0.2842660000  0.6275800000  0.4090350000  1  1  1
0.3410670000  0.6532030000  0.4135880000  1  1  1
0.3408430000  0.6531350000  0.4263970000  1  1  1
0.2840850000  0.6274670000  0.4309410000  1  1  1
0.2756090000  0.6219340000  0.4458070000  1  1  1
0.3396870000  0.6527820000  0.4528870000  1  1  1
0.3393610000  0.6526810000  0.4669830000  1  1  1
0.2745560000  0.6212100000  0.4740760000  1  1  1
0.2834330000  0.6270600000  0.4888240000  1  1  1
0.3405310000  0.6530410000  0.4934380000  1  1  1
0.3403880000  0.6529970000  0.5062140000  1  1  1
0.2845510000  0.6277560000  0.5107520000  1  1  1
0.2760210000  0.6222150000  0.5252730000  1  1  1
0.3412300000  0.6532520000  0.5325470000  1  1  1
0.3406510000  0.6530770000  0.5463950000  1  1  1
0.2756880000  0.6219880000  0.5531050000  1  1  1
0.2754240000  0.6218080000  0.5670330000  1  1  1
0.3401240000  0.6529160000  0.5736790000  1  1  1
0.3404780000  0.6530240000  0.5875470000  1  1  1
0.2755520000  0.6218950000  0.5947370000  1  1  1
0.1882430000  0.5033800000  0.4090700000  1  1  1
0.2079970000  0.5493380000  0.4200840000  1  1  1
0.2076030000  0.3402380000  0.4200540000  1  1  1
0.1881790000  0.5031630000  0.4309860000  1  1  1
0.1910510000  0.5121670000  0.4458310000  1  1  1
0.2239920000  0.5732420000  0.4523310000  1  1  1
0.2237940000  0.5729830000  0.4676100000  1  1  1
0.1909440000  0.5118550000  0.4741260000  1  1  1
0.1880960000  0.5028820000  0.4889130000  1  1  1
0.2078550000  0.5490900000  0.4998650000  1  1  1
0.2075890000  0.3402610000  0.4998330000  1  1  1
0.1883840000  0.5038570000  0.5107710000  1  1  1
0.1916760000  0.5139560000  0.5252720000  1  1  1
0.2232440000  0.3166260000  0.5316270000  1  1  1
0.2235740000  0.3161930000  0.5462190000  1  1  1
0.1910560000  0.5121810000  0.5531130000  1  1  1
0.1909550000  0.5118860000  0.5670130000  1  1  1
0.2239230000  0.5731520000  0.5738300000  1  1  1
0.2238750000  0.5730890000  0.5882840000  1  1  1
0.1912880000  0.5128520000  0.5946270000  1  1  1
0.1879480000  0.3865150000  0.4090350000  1  1  1
0.1796980000  0.4454530000  0.4135880000  1  1  1
0.1796970000  0.4452300000  0.4263970000  1  1  1
0.1880060000  0.3863170000  0.4309410000  1  1  1
0.1909580000  0.3769940000  0.4458070000  1  1  1
0.1796960000  0.4440830000  0.4528870000  1  1  1
0.1796960000  0.4437590000  0.4669830000  1  1  1
0.1913620000  0.3758240000  0.4740760000  1  1  1
0.1882140000  0.3856050000  0.4888240000  1  1  1
0.1796960000  0.4449210000  0.4934380000  1  1  1
0.1796960000  0.4447790000  0.5062140000  1  1  1
0.1878580000  0.3868250000  0.5107520000  1  1  1
0.1908020000  0.3774510000  0.5252730000  1  1  1
0.1796990000  0.4456140000  0.5325470000  1  1  1
0.1796960000  0.4450400000  0.5463950000  1  1  1
0.1909280000  0.3770810000  0.5531050000  1  1  1
0.1910280000  0.3767890000  0.5670330000  1  1  1
0.1796950000  0.4445160000  0.5736790000  1  1  1
0.1796960000  0.4448680000  0.5875470000  1  1  1
0.1909800000  0.3769310000  0.5947370000  1  1  1
0.2833440000  0.2618840000  0.4090700000  1  1  1
0.2431690000  0.2938300000  0.4200840000  1  1  1
0.4536110000  0.2288600000  0.4200540000  1  1  1
0.2835430000  0.2617600000  0.4309860000  1  1  1
0.2753640000  0.2671230000  0.4458310000  1  1  1
0.2240410000  0.3155840000  0.4523310000  1  1  1
0.2242400000  0.3153260000  0.4676100000  1  1  1
0.2756450000  0.2669300000  0.4741260000  1  1  1
0.2838000000  0.2615990000  0.4889130000  1  1  1
0.2433750000  0.2936260000  0.4998650000  1  1  1
0.4535840000  0.2288560000  0.4998330000  1  1  1
0.2829080000  0.2621590000  0.5107710000  1  1  1
0.2737550000  0.2682360000  0.5252720000  1  1  1
0.4822220000  0.2356130000  0.5316270000  1  1  1
0.4827590000  0.2357760000  0.5462190000  1  1  1
0.2753510000  0.2671310000  0.5531130000  1  1  1
0.2756170000  0.2669490000  0.5670130000  1  1  1
0.2241100000  0.3154940000  0.5738300000  1  1  1
0.2241590000  0.3154310000  0.5882840000  1  1  1
0.2747470000  0.2675470000  0.5946270000  1  1  1
0.4009370000  0.2255060000  0.4090350000  1  1  1
0.3390370000  0.2363090000  0.4135880000  1  1  1
0.3392610000  0.2362390000  0.4263970000  1  1  1
0.4011540000  0.2254970000  0.4309410000  1  1  1
0.4114540000  0.2252680000  0.4458070000  1  1  1
0.3404160000  0.2358840000  0.4528870000  1  1  1
0.3407420000  0.2357840000  0.4669830000  1  1  1
0.4127570000  0.2252700000  0.4740760000  1  1  1
0.4019350000  0.2254650000  0.4888240000  1  1  1
0.3395720000  0.2361430000  0.4934380000  1  1  1
0.3397140000  0.2360990000  0.5062140000  1  1  1
0.4005970000  0.2255220000  0.5107520000  1  1  1
0.4109460000  0.2252690000  0.5252730000  1  1  1
0.3388750000  0.2363590000  0.5325470000  1  1  1
0.3394520000  0.2361800000  0.5463950000  1  1  1
0.4113570000  0.2252680000  0.5531050000  1  1  1
0.4116830000  0.2252680000  0.5670330000  1  1  1
0.3399790000  0.2360170000  0.5736790000  1  1  1
0.3396250000  0.2361260000  0.5875470000  1  1  1
0.4115250000  0.2252680000  0.5947370000  1  1  1
0.5559190000  0.2726810000  0.4090700000  1  1  1
0.5113340000  0.2464670000  0.4200840000  1  1  1
0.6417890000  0.4154120000  0.4200540000  1  1  1
0.5561050000  0.2728200000  0.4309860000  1  1  1
0.5481770000  0.2671310000  0.4458310000  1  1  1
0.4835170000  0.2360070000  0.4523310000  1  1  1
0.4838390000  0.2361060000  0.4676100000  1  1  1
0.5484590000  0.2673240000  0.4741260000  1  1  1
0.5563470000  0.2730020000  0.4889130000  1  1  1
0.5116040000  0.2465880000  0.4998650000  1  1  1
0.6417860000  0.4153870000  0.4998330000  1  1  1
0.5555070000  0.2723730000  0.5107710000  1  1  1
0.5465590000  0.2660300000  0.5252720000  1  1  1
0.6438300000  0.4431990000  0.5316270000  1  1  1
0.6438330000  0.4437310000  0.5462190000  1  1  1
0.5481650000  0.2671220000  0.5531130000  1  1  1
0.5484300000  0.2673050000  0.5670130000  1  1  1
0.4836290000  0.2360410000  0.5738300000  1  1  1
0.4837070000  0.2360660000  0.5882840000  1  1  1
0.5475600000  0.2667080000  0.5946270000  1  1  1
0.6288900000  0.3670630000  0.4090350000  1  1  1
0.5988830000  0.3148010000  0.4135880000  1  1  1
0.5990230000  0.3149810000  0.4263970000  1  1  1
0.6289660000  0.3672550000  0.4309410000  1  1  1
0.6323800000  0.3764360000  0.4458070000  1  1  1
0.5997380000  0.3159090000  0.4528870000  1  1  1
0.5999380000  0.3161710000  0.4669830000  1  1  1
0.6327800000  0.3776070000  0.4740760000  1  1  1
0.6292400000  0.3679470000  0.4888240000  1  1  1
0.5992160000  0.3152300000  0.4934380000  1  1  1
0.5993040000  0.3153450000  0.5062140000  1  1  1
0.6287690000  0.3667630000  0.5107520000  1  1  1
0.6322220000  0.3759810000  0.5252730000  1  1  1