%BLOCK LATTICE_CART
15.760994878076    0.000000000000    0.000000000000    
0.000000000000    15.760994878076    0.000000000000    
0.000000000000    0.000000000000    15.760994878076    
%END BLOCK LATTICE_CART
%BLOCK POSITIONS_FRAC
Al    0.000000000000    0.000000000000    0.000000000000
Al    0.125000000000    0.125000000000    0.000000000000
Al    0.125000000000    0.000000000000    0.125000000000
Al    0.000000000000    0.125000000000    0.125000000000
Al    0.000000000000    0.000000000000    0.250000000000
Al    0.125000000000    0.125000000000    0.250000000000
Al    0.125000000000    0.000000000000    0.375000000000
Al    0.000000000000    0.125000000000    0.375000000000
Al    0.000000000000    0.000000000000    0.500000000000
Al    0.125000000000    0.125000000000    0.500000000000
Al    0.125000000000    0.000000000000    0.625000000000
Al    0.000000000000    0.125000000000    0.625000000000
Al    0.000000000000    0.000000000000    0.750000000000
Al    0.125000000000    0.125000000000    0.750000000000
Al    0.125000000000    0.000000000000    0.875000000000
Al    0.000000000000    0.125000000000    0.875000000000
Al    0.000000000000    0.250000000000    0.000000000000
Al    0.125000000000    0.375000000000    0.000000000000
Al    0.125000000000    0.250000000000    0.125000000000
Al    0.000000000000    0.375000000000    0.125000000000
Al    0.000000000000    0.250000000000    0.250000000000
Al    0.125000000000    0.375000000000    0.250000000000
Al    0.125000000000    0.250000000000    0.375000000000
Al    0.000000000000    0.375000000000    0.375000000000
Al    0.000000000000    0.250000000000    0.500000000000
Al    0.125000000000    0.375000000000    0.500000000000
Al    0.125000000000    0.250000000000    0.625000000000
Al    0.000000000000    0.375000000000    0.625000000000
Al    0.000000000000    0.250000000000    0.750000000000
Al    0.125000000000    0.375000000000    0.750000000000
Al    0.125000000000    0.250000000000    0.875000000000
Al    0.000000000000    0.375000000000    0.875000000000
Al    0.000000000000    0.500000000000    0.000000000000
Al    0.125000000000    0.625000000000    0.000000000000
Al    0.125000000000    0.500000000000    0.125000000000
Al    0.000000000000    0.625000000000    0.125000000000
Al    0.000000000000    0.500000000000    0.250000000000
Al    0.125000000000    0.625000000000    0.250000000000
Al    0.125000000000    0.500000000000    0.375000000000
Al    0.000000000000    0.625000000000    0.375000000000
Al    0.000000000000    0.500000000000    0.500000000000
Al    0.125000000000    0.625000000000    0.500000000000
Al    0.125000000000    0.500000000000    0.625000000000
Al    0.000000000000    0.625000000000    0.625000000000
Al    0.000000000000    0.500000000000    0.750000000000
Al    0.125000000000    0.625000000000    0.750000000000
Al    0.125000000000    0.500000000000    0.875000000000
Al    0.000000000000    0.625000000000    0.875000000000
Al    0.000000000000    0.750000000000    0.000000000000
Al    0.125000000000    0.875000000000    0.000000000000
Al    0.125000000000    0.750000000000    0.125000000000
Al    0.000000000000    0.875000000000    0.125000000000
Al    0.000000000000    0.750000000000    0.250000000000
Al    0.125000000000    0.875000000000    0.250000000000
Al    0.125000000000    0.750000000000    0.375000000000
Al    0.000000000000    0.875000000000    0.375000000000
Al    0.000000000000    0.750000000000    0.500000000000
Al    0.125000000000    0.875000000000    0.500000000000
Al    0.125000000000    0.750000000000    0.625000000000
Al    0.000000000000    0.875000000000    0.625000000000
Al    0.000000000000    0.750000000000    0.750000000000
Al    0.125000000000    0.875000000000    0.750000000000
Al    0.125000000000    0.750000000000    0.875000000000
Al    0.000000000000    0.875000000000    0.875000000000
Al    0.250000000000    0.000000000000    0.000000000000
Al    0.375000000000    0.125000000000    0.000000000000
Al    0.375000000000    0.000000000000    0.125000000000
Al    0.250000000000    0.125000000000    0.125000000000
Al    0.250000000000    0.000000000000    0.250000000000
Al    0.375000000000    0.125000000000    0.250000000000
Al    0.375000000000    0.000000000000    0.375000000000
Al    0.250000000000    0.125000000000    0.375000000000
Al    0.250000000000    0.000000000000    0.500000000000
Al    0.375000000000    0.125000000000    0.500000000000
Al    0.375000000000    0.000000000000    0.625000000000
Al    0.250000000000    0.125000000000    0.625000000000
Al    0.250000000000    0.000000000000    0.750000000000
Al    0.375000000000    0.125000000000    0.750000000000
Al    0.375000000000    0.000000000000    0.875000000000
Al    0.250000000000    0.125000000000    0.875000000000
Al    0.250000000000    0.250000000000    0.000000000000
Al    0.375000000000    0.375000000000    0.000000000000
Al    0.375000000000    0.250000000000    0.125000000000
Al    0.250000000000    0.375000000000    0.125000000000
Al    0.250000000000    0.250000000000    0.250000000000
Al    0.375000000000    0.375000000000    0.250000000000
Al    0.375000000000    0.250000000000    0.375000000000
Al    0.250000000000    0.375000000000    0.375000000000
Al    0.250000000000    0.250000000000    0.500000000000
Al    0.375000000000    0.375000000000    0.500000000000
Al    0.375000000000    0.250000000000    0.625000000000
Al    0.250000000000    0.375000000000    0.625000000000
Al    0.250000000000    0.250000000000    0.750000000000
Al    0.375000000000    0.375000000000    0.750000000000
Al    0.375000000000    0.250000000000    0.875000000000
Al    0.250000000000    0.375000000000    0.875000000000
Al    0.250000000000    0.500000000000    0.000000000000
Al    0.375000000000    0.625000000000    0.000000000000
Al    0.375000000000    0.500000000000    0.125000000000
Al    0.250000000000    0.625000000000    0.125000000000
Al    0.250000000000    0.500000000000    0.250000000000
Al    0.375000000000    0.625000000000    0.250000000000
Al    0.375000000000    0.500000000000    0.375000000000
Al    0.250000000000    0.625000000000    0.375000000000
Al    0.250000000000    0.500000000000    0.500000000000
Al    0.375000000000    0.625000000000    0.500000000000
Al    0.375000000000    0.500000000000    0.625000000000
Al    0.250000000000    0.625000000000    0.625000000000
Al    0.250000000000    0.500000000000    0.750000000000
Al    0.375000000000    0.625000000000    0.750000000000
Al    0.375000000000    0.500000000000    0.875000000000
Al    0.250000000000    0.625000000000    0.875000000000
Al    0.250000000000    0.750000000000    0.000000000000
Al    0.375000000000    0.875000000000    0.000000000000
Al    0.375000000000    0.750000000000    0.125000000000
Al    0.250000000000    0.875000000000    0.125000000000
Al    0.250000000000    0.750000000000    0.250000000000
Al    0.375000000000    0.875000000000    0.250000000000
Al    0.375000000000    0.750000000000    0.375000000000
Al    0.250000000000    0.875000000000    0.375000000000
Al    0.250000000000    0.750000000000    0.500000000000
Al    0.375000000000    0.875000000000    0.500000000000
Al    0.375000000000    0.750000000000    0.625000000000
Al    0.250000000000    0.875000000000    0.625000000000
Al    0.250000000000    0.750000000000    0.750000000000
Al    0.375000000000    0.875000000000    0.750000000000
Al    0.375000000000    0.750000000000    0.875000000000
Al    0.250000000000    0.875000000000    0.875000000000
Al    0.500000000000    0.000000000000    0.000000000000
Al    0.625000000000    0.125000000000    0.000000000000
Al    0.625000000000    0.000000000000    0.125000000000
Al    0.500000000000    0.125000000000    0.125000000000
Al    0.500000000000    0.000000000000    0.250000000000
Al    0.625000000000    0.125000000000    0.250000000000
Al    0.625000000000    0.000000000000    0.375000000000
Al    0.500000000000    0.125000000000    0.375000000000
Al    0.500000000000    0.000000000000    0.500000000000
Al    0.625000000000    0.125000000000    0.500000000000
Al    0.625000000000    0.000000000000    0.625000000000
Al    0.500000000000    0.125000000000    0.625000000000
Al    0.500000000000    0.000000000000    0.750000000000
Al    0.625000000000    0.125000000000    0.750000000000
Al    0.625000000000    0.000000000000    0.875000000000
Al    0.500000000000    0.125000000000    0.875000000000
Al    0.500000000000    0.250000000000    0.000000000000
Al    0.625000000000    0.375000000000    0.000000000000
Al    0.625000000000    0.250000000000    0.125000000000
Al    0.500000000000    0.375000000000    0.125000000000
Al    0.500000000000    0.250000000000    0.250000000000
Al    0.625000000000    0.375000000000    0.250000000000
Al    0.625000000000    0.250000000000    0.375000000000
Al    0.500000000000    0.375000000000    0.375000000000
Al    0.500000000000    0.250000000000    0.500000000000
Al    0.625000000000    0.375000000000    0.500000000000
Al    0.625000000000    0.250000000000    0.625000000000
Al    0.500000000000    0.375000000000    0.625000000000
Al    0.500000000000    0.250000000000    0.750000000000
Al    0.625000000000    0.375000000000    0.750000000000
Al    0.625000000000    0.250000000000    0.875000000000
Al    0.500000000000    0.375000000000    0.875000000000
Al    0.500000000000    0.500000000000    0.000000000000
Al    0.625000000000    0.625000000000    0.000000000000
Al    0.625000000000    0.500000000000    0.125000000000
Al    0.500000000000    0.625000000000    0.125000000000
Al    0.500000000000    0.500000000000    0.250000000000
Al    0.625000000000    0.625000000000    0.250000000000
Al    0.625000000000    0.500000000000    0.375000000000
Al    0.500000000000    0.625000000000    0.375000000000
Al    0.500000000000    0.500000000000    0.500000000000
Al    0.625000000000    0.625000000000    0.500000000000
Al    0.625000000000    0.500000000000    0.625000000000
Al    0.500000000000    0.625000000000    0.625000000000
Al    0.500000000000    0.500000000000    0.750000000000
Al    0.625000000000    0.625000000000    0.750000000000
Al    0.625000000000    0.500000000000    0.875000000000
Al    0.500000000000    0.625000000000    0.875000000000
Al    0.500000000000    0.750000000000    0.000000000000
Al    0.625000000000    0.875000000000    0.000000000000
Al    0.625000000000    0.750000000000    0.125000000000
Al    0.500000000000    0.875000000000    0.125000000000
Al    0.500000000000    0.750000000000    0.250000000000
Al    0.625000000000    0.875000000000    0.250000000000
Al    0.625000000000    0.750000000000    0.375000000000
Al    0.500000000000    0.875000000000    0.375000000000
Al    0.500000000000    0.750000000000    0.500000000000
Al    0.625000000000    0.875000000000    0.500000000000
Al    0.625000000000    0.750000000000    0.625000000000
Al    0.500000000000    0.875000000000    0.625000000000
Al    0.500000000000    0.750000000000    0.750000000000
Al    0.625000000000    0.875000000000    0.750000000000
Al    0.625000000000    0.750000000000    0.875000000000
Al    0.500000000000    0.875000000000    0.875000000000
Al    0.750000000000    0.000000000000    0.000000000000
Al    0.875000000000    0.125000000000    0.000000000000
Al    0.875000000000    0.000000000000    0.125000000000
Al    0.750000000000    0.125000000000    0.125000000000
Al    0.750000000000    0.000000000000    0.250000000000
Al    0.875000000000    0.125000000000    0.250000000000
Al    0.875000000000    0.000000000000    0.375000000000
Al    0.750000000000    0.125000000000    0.375000000000
Al    0.750000000000    0.000000000000    0.500000000000
Al    0.875000000000    0.125000000000    0.500000000000
Al    0.875000000000    0.000000000000    0.625000000000
Al    0.750000000000    0.125000000000    0.625000000000
Al    0.750000000000    0.000000000000    0.750000000000
Al    0.875000000000    0.125000000000    0.750000000000
Al    0.875000000000    0.000000000000    0.875000000000
Al    0.750000000000    0.125000000000    0.875000000000
Al    0.750000000000    0.250000000000    0.000000000000
Al    0.875000000000    0.375000000000    0.000000000000
Al    0.875000000000    0.250000000000    0.125000000000
Al    0.750000000000    0.375000000000    0.125000000000
Al    0.750000000000    0.250000000000    0.250000000000
Al    0.875000000000    0.375000000000    0.250000000000
Al    0.875000000000    0.250000000000    0.375000000000
Al    0.750000000000    0.375000000000    0.375000000000
Al    0.750000000000    0.250000000000    0.500000000000
Al    0.875000000000    0.375000000000    0.500000000000
Al    0.875000000000    0.250000000000    0.625000000000
Al    0.750000000000    0.375000000000    0.625000000000
Al    0.750000000000    0.250000000000    0.750000000000
Al    0.875000000000    0.375000000000    0.750000000000
Al    0.875000000000    0.250000000000    0.875000000000
Al    0.750000000000    0.375000000000    0.875000000000
Al    0.750000000000    0.500000000000    0.000000000000
Al    0.875000000000    0.625000000000    0.000000000000
Al    0.875000000000    0.500000000000    0.125000000000
Al    0.750000000000    0.625000000000    0.125000000000
Al    0.750000000000    0.500000000000    0.250000000000
Al    0.875000000000    0.625000000000    0.250000000000
Al    0.875000000000    0.500000000000    0.375000000000
Al    0.750000000000    0.625000000000    0.375000000000
Al    0.750000000000    0.500000000000    0.500000000000
Al    0.875000000000    0.625000000000    0.500000000000
Al    0.875000000000    0.500000000000    0.625000000000
Al    0.750000000000    0.625000000000    0.625000000000
Al    0.750000000000    0.500000000000    0.750000000000
Al    0.875000000000    0.625000000000    0.750000000000
Al    0.875000000000    0.500000000000    0.875000000000
Al    0.750000000000    0.625000000000    0.875000000000
Al    0.750000000000    0.750000000000    0.000000000000
Al    0.875000000000    0.875000000000    0.000000000000
Al    0.875000000000    0.750000000000    0.125000000000
Al    0.750000000000    0.875000000000    0.125000000000
Al    0.750000000000    0.750000000000    0.250000000000
Al    0.875000000000    0.875000000000    0.250000000000
Al    0.875000000000    0.750000000000    0.375000000000
Al    0.750000000000    0.875000000000    0.375000000000
Al    0.750000000000    0.750000000000    0.500000000000
Al    0.875000000000    0.875000000000    0.500000000000
Al    0.875000000000    0.750000000000    0.625000000000
Al    0.750000000000    0.875000000000    0.625000000000
Al    0.750000000000    0.750000000000    0.750000000000
Al    0.875000000000    0.875000000000    0.750000000000
Al    0.875000000000    0.750000000000    0.875000000000
Al    0.750000000000    0.875000000000    0.875000000000
%END BLOCK POSITIONS_FRAC
%BLOCK SPECIES_POT
Al al.lda.recpot
%END BLOCK SPECIES_POT
