ATOMIC_SPECIES
Li 6.941 li.gga.psp.1 blps
Al 26.981 al.gga.psp blps

LATTICE_CONSTANT
1.8897259885789233  // add lattice constant

LATTICE_VECTORS
6.326785421587    0.000000000000    0.000000000000    
0.000000000000    6.326785421587    0.000000000000    
0.000000000000    0.000000000000    6.326785421587    

ATOMIC_POSITIONS
Direct

Li
0.0
8
    0.250000000000    0.250000000000    0.250000000000 1 1 1
    0.500000000000    0.500000000000    0.000000000000 1 1 1
    0.250000000000    0.750000000000    0.750000000000 1 1 1
    0.500000000000    0.000000000000    0.500000000000 1 1 1
    0.750000000000    0.250000000000    0.750000000000 1 1 1
    0.000000000000    0.500000000000    0.500000000000 1 1 1
    0.750000000000    0.750000000000    0.250000000000 1 1 1
    0.000000000000    0.000000000000    0.000000000000 1 1 1
Al
0.0
8
    0.250000000000    0.750000000000    0.250000000000 1 1 1
    0.500000000000    0.000000000000    0.000000000000 1 1 1
    0.250000000000    0.250000000000    0.750000000000 1 1 1
    0.500000000000    0.500000000000    0.500000000000 1 1 1
    0.750000000000    0.750000000000    0.750000000000 1 1 1
    0.000000000000    0.000000000000    0.500000000000 1 1 1
    0.750000000000    0.250000000000    0.250000000000 1 1 1
    0.000000000000    0.500000000000    0.000000000000 1 1 1
