%BLOCK LATTICE_CART
   2.805799707700000   0.000000000000000   0.000000000000000
   1.402899853850000   2.429893824799152   0.000000000000000
   0.000000000000003   0.000000000000002  50.479082613840710
%END BLOCK LATTICE_CART
%BLOCK POSITIONS_FRAC
    Al   0.000000000000000   0.000000000000000   0.000120071342625
    Al   0.333333333300000   0.333333333300000   0.045459703213218
    Al   0.666666666700000   0.666666666700000   0.090729342342180
    Al   0.000000000000000   0.000000000000000   0.136054780695258
    Al   0.333333333300000   0.333333333300000   0.181665724545876
    Al   0.000000000000000   0.000000000000000   0.227426571579450
    Al   0.333333333300000   0.333333333300000   0.273037397173567
    Al   0.666666666700000   0.666666666700000   0.318362611633259
    Al   0.000000000000000   0.000000000000000   0.363631926539968
    Al   0.333333333300000   0.333333333300000   0.408971189578406
    Al   0.666666666700000   0.666666666700000   0.454545660608034
    Al   0.333333333300000   0.333333333300000   0.500120124009804
    Al   0.000000000000000   0.000000000000000   0.545459347651129
    Al   0.666666666700000   0.666666666700000   0.590728594903729
    Al   0.333333333300000   0.333333333300000   0.636053714126301
    Al   0.000000000000000   0.000000000000000   0.681664428732794
    Al   0.333333333300000   0.333333333300000   0.727425145036491
    Al   1.000000000000000   1.000000000000000   0.773035958251308
    Al   0.666666666700000   0.666666666700000   0.818361274476797
    Al   0.333333333300000   0.333333333300000   0.863630809765006
    Al   0.000000000000000   0.000000000000000   0.908970374014684
    Al   0.666666666700000   0.666666666700000   0.954545209469391
%END BLOCK POSITIONS_FRAC
%BLOCK SPECIES_POT
    Al al_HC.lda.recpot                                                                       
%END BLOCK SPECIES_POT
%BLOCK ION_OPTIMIZATION
           0           0           1
           0           0           1
           0           0           1
           0           0           1
           0           0           1
           0           0           1
           0           0           1
           0           0           1
           0           0           1
           0           0           1
           0           0           1
           0           0           1
           0           0           1
           0           0           1
           0           0           1
           0           0           1
           0           0           1
           0           0           1
           0           0           1
           0           0           1
           0           0           1
           0           0           1
%END BLOCK ION_OPTIMIZATION
