%BLOCK LATTICE_CART
0.000000000000    2.619600798491    2.619600798491    
2.619600798491    0.000000000000    2.619600798491    
2.619600798491    2.619600798491    0.000000000000    
%END BLOCK LATTICE_CART
%BLOCK POSITIONS_FRAC
Al    0.000000000000    0.000000000000    0.000000000000
P    0.250000000000    0.250000000000    0.250000000000
%END BLOCK POSITIONS_FRAC
%BLOCK SPECIES_POT
Al al.gga.recpot
P p.gga.recpot
%END BLOCK SPECIES_POT
