ATOMIC_SPECIES
Li 6.941 li.gga.psp.1 blps
Mg 24.305 mg.gga.psp blps
Al 26.981 al.gga.psp blps

LATTICE_CONSTANT
1.8897259885789233  // add lattice constant

LATTICE_VECTORS
7.446171064704    -12.897146605916    0.000000000000    
7.446171064704    12.897146605916    0.000000000000    
0.000000000000    0.000000000000    9.081637572205    

ATOMIC_POSITIONS
Direct

Li
0.0
3
    0.000000000000    0.000000000000    0.333038000000 1 1 1
    0.666666666667    0.333333333333    0.666371333333 1 1 1
    0.333333333333    0.666666666667    0.999704666667 1 1 1
Mg
0.0
48
    0.103302000000    0.896698000000    0.493983000000 1 1 1
    0.114493666667    0.885506333333    0.885101333333 1 1 1
    0.000000000000    0.000000000000    0.004160000000 1 1 1
    0.199935000000    0.800065000000    0.115497000000 1 1 1
    0.371223333333    0.342996666667    0.028589666667 1 1 1
    0.460062666667    0.230031333333    0.827316333333 1 1 1
    0.323670000000    0.361560000000    0.361923000000 1 1 1
    0.437679333333    0.218839666667    0.218434666667 1 1 1
    0.305106666667    0.295443333333    0.695256333333 1 1 1
    0.199935000000    0.399870000000    0.115497000000 1 1 1
    0.266796666667    0.133398333333    0.448830333333 1 1 1
    0.371223333333    0.028226666667    0.028589666667 1 1 1
    0.114493666667    0.228987333333    0.885101333333 1 1 1
    0.305106666667    0.009663333333    0.695256333333 1 1 1
    0.103302000000    0.206604000000    0.493983000000 1 1 1
    0.323670000000    0.962110000000    0.361923000000 1 1 1
    0.769968666667    0.230031333333    0.827316333333 1 1 1
    0.781160333333    0.218839666667    0.218434666667 1 1 1
    0.666666666667    0.333333333333    0.337493333333 1 1 1
    0.866601666667    0.133398333333    0.448830333333 1 1 1
    0.037890000000    0.676330000000    0.361923000000 1 1 1
    0.126729333333    0.563364666667    0.160649666667 1 1 1
    0.990336666667    0.694893333333    0.695256333333 1 1 1
    0.104346000000    0.552173000000    0.551768000000 1 1 1
    0.971773333333    0.628776666667    0.028589666667 1 1 1
    0.866601666667    0.733203333333    0.448830333333 1 1 1
    0.933463333333    0.466731666667    0.782163666667 1 1 1
    0.037890000000    0.361560000000    0.361923000000 1 1 1
    0.781160333333    0.562320666667    0.218434666667 1 1 1
    0.971773333333    0.342996666667    0.028589666667 1 1 1
    0.769968666667    0.539937333333    0.827316333333 1 1 1
    0.990336666667    0.295443333333    0.695256333333 1 1 1
    0.436635333333    0.563364666667    0.160649666667 1 1 1
    0.447827000000    0.552173000000    0.551768000000 1 1 1
    0.333333333333    0.666666666667    0.670826666667 1 1 1
    0.533268333333    0.466731666667    0.782163666667 1 1 1
    0.704556666667    0.009663333333    0.695256333333 1 1 1
    0.793396000000    0.896698000000    0.493983000000 1 1 1
    0.657003333333    0.028226666667    0.028589666667 1 1 1
    0.771012666667    0.885506333333    0.885101333333 1 1 1
    0.638440000000    0.962110000000    0.361923000000 1 1 1
    0.533268333333    0.066536666667    0.782163666667 1 1 1
    0.600130000000    0.800065000000    0.115497000000 1 1 1
    0.704556666667    0.694893333333    0.695256333333 1 1 1
    0.447827000000    0.895654000000    0.551768000000 1 1 1
    0.638440000000    0.676330000000    0.361923000000 1 1 1
    0.436635333333    0.873270666667    0.160649666667 1 1 1
    0.657003333333    0.628776666667    0.028589666667 1 1 1
Al
0.0
36
    0.271662333333    0.728337666667    0.364611666667 1 1 1
    0.210272333333    0.789727666667    0.603777666667 1 1 1
    0.334209000000    0.484214000000    0.850395000000 1 1 1
    0.483338333333    0.332457666667    0.517061666667 1 1 1
    0.271662333333    0.543324666667    0.364611666667 1 1 1
    0.483338333333    0.150880666667    0.517061666667 1 1 1
    0.210272333333    0.420544666667    0.603777666667 1 1 1
    0.246122000000    0.123061000000    0.937111000000 1 1 1
    0.182452666667    0.183328333333    0.183728333333 1 1 1
    0.123342000000    0.061671000000    0.697945000000 1 1 1
    0.334209000000    0.849995000000    0.850395000000 1 1 1
    0.182452666667    0.999124333333    0.183728333333 1 1 1
    0.938329000000    0.061671000000    0.697945000000 1 1 1
    0.876939000000    0.123061000000    0.937111000000 1 1 1
    0.000875666667    0.817547333333    0.183728333333 1 1 1
    0.150005000000    0.665791000000    0.850395000000 1 1 1
    0.938329000000    0.876658000000    0.697945000000 1 1 1
    0.150005000000    0.484214000000    0.850395000000 1 1 1
    0.876939000000    0.753878000000    0.937111000000 1 1 1
    0.912788666667    0.456394333333    0.270444333333 1 1 1
    0.849119333333    0.516661666667    0.517061666667 1 1 1
    0.790008666667    0.395004333333    0.031278333333 1 1 1
    0.000875666667    0.183328333333    0.183728333333 1 1 1
    0.849119333333    0.332457666667    0.517061666667 1 1 1
    0.604995666667    0.395004333333    0.031278333333 1 1 1
    0.543605666667    0.456394333333    0.270444333333 1 1 1
    0.667542333333    0.150880666667    0.517061666667 1 1 1
    0.816671666667    0.999124333333    0.183728333333 1 1 1
    0.604995666667    0.209991333333    0.031278333333 1 1 1
    0.816671666667    0.817547333333    0.183728333333 1 1 1
    0.543605666667    0.087211333333    0.270444333333 1 1 1
    0.579455333333    0.789727666667    0.603777666667 1 1 1
    0.515786000000    0.849995000000    0.850395000000 1 1 1
    0.456675333333    0.728337666667    0.364611666667 1 1 1
    0.667542333333    0.516661666667    0.517061666667 1 1 1
    0.515786000000    0.665791000000    0.850395000000 1 1 1
