ATOMIC_SPECIES
Al 26.981539 Al_ONCV_PBE-1.2.upf

LATTICE_CONSTANT
7.4984327225523  // add lattice constant

LATTICE_VECTORS
0.707106781187    0.000000000000    0.000000000000    
0.353553390593    0.612372435696    0.000000000000    
0.000000000000    0.000000000000    12.701705922171765   

ATOMIC_POSITIONS
Direct

Al
0.0
22
    -2.1780612456E-33 -6.8880294951E-32  1.9618952068E-04 1 1 1
     3.3333333333E-01  3.3333333333E-01  4.5392580562E-02 1 1 1
     6.6666666667E-01  6.6666666667E-01  9.0954335807E-02 1 1 1
    -2.1780612456E-33 -6.8880294951E-32  1.3622466838E-01 1 1 1
     3.3333333333E-01  3.3333333333E-01  1.8186965381E-01 1 1 1
    -2.1780612456E-33 -6.8880294951E-32  2.2729073857E-01 1 1 1
     6.6666666667E-01  6.6666666667E-01  2.7270179486E-01 1 1 1
     1.0000000000E+00  1.0000000000E+00  3.1832954383E-01 1 1 1
     3.3333333333E-01  3.3333333333E-01  3.6364335095E-01 1 1 1
     6.6666666667E-01  6.6666666667E-01  4.0889028665E-01 1 1 1
     1.0000000000E+00  1.0000000000E+00  4.5454545455E-01 1 1 1
     6.6666666667E-01  6.6666666667E-01  5.0020062245E-01 1 1 1
     3.3333333333E-01  3.3333333333E-01  5.4544755815E-01 1 1 1
     1.0000000000E+00  1.0000000000E+00  5.9076136527E-01 1 1 1
     6.6666666667E-01  6.6666666667E-01  6.3638911424E-01 1 1 1
    -2.1780612456E-33 -6.8880294951E-32  6.8180017053E-01 1 1 1
     3.3333333333E-01  3.3333333333E-01  7.2722125529E-01 1 1 1
    -2.1780612456E-33 -6.8880294951E-32  7.7286624072E-01 1 1 1
     6.6666666667E-01  6.6666666667E-01  8.1813657329E-01 1 1 1
     3.3333333333E-01  3.3333333333E-01  8.6369832854E-01 1 1 1
    -2.1780612456E-33 -6.8880294951E-32  9.0889471958E-01 1 1 1
     6.6666666667E-01  6.6666666667E-01  9.5454545455E-01 1 1 1
