ATOMIC_SPECIES
Al 13 al.lda.lps blps

LATTICE_CONSTANT
7.603785375815989  // add lattice constant

LATTICE_VECTORS
0.707106781187    0.000000000000    0.000000000000    
0.353553390593    0.612372435696    0.000000000000    
0.000000000000    0.000000000000    5.773502691896    

ATOMIC_POSITIONS
Direct

Al
0.0
5
    0.000000000000    0.000000000000    0.000000000000 1 1 1
    0.333333333333    0.333333333333    0.100000000000 1 1 1
    0.666666666667    0.666666666667    0.200000000000 1 1 1
    0.000000000000    0.000000000000    0.300000000000 1 1 1
    0.333333333333    0.333333333333    0.400000000000 1 1 1
