%BLOCK LATTICE_CART
2.456295133288    0.000000000000    0.000000000000    
-1.228147566644    2.127213984619    0.000000000000    
0.000000000000    0.000000000000    3.912159161765    
%END BLOCK LATTICE_CART
%BLOCK POSITIONS_FRAC
Si    0.000000000000    0.000000000000    0.000000000000
Si    0.666666666667    0.333333333333    0.500000000000
%END BLOCK POSITIONS_FRAC
%BLOCK SPECIES_POT
Si si.gga.recpot
%END BLOCK SPECIES_POT
