ATOMIC_SPECIES
Al 27 al.lda.lps

LATTICE_CONSTANT
7.50241114482

LATTICE_VECTORS
0.707106781187 0 0 #latvec1
0.353553390593 0.612372435696 0 #latvec2
0 0 11.5470053838 #latvec3

ATOMIC_POSITIONS
Direct

Al #label
0 #magnetism
20 #number of atoms
0 0 0.000107965902278 0 0 1 0 0 0
0.333333333332 0.333333333332 0.0498757124191 0 0 1 0 0 0
0.666666666668 0.666666666668 0.100086510342 0 0 1 0 0 0
0 0 0.149967276169 0 0 1 0 0 0
0.333333333332 0.333333333332 0.199856181029 0 0 1 0 0 0
0.966666666667 0.966666666667 0.250160239707 0 0 1 0 0 0
0.299999999999 0.299999999999 0.299988305629 0 0 1 0 0 0
0.633333333333 0.633333333333 0.350015235506 0 0 1 0 0 0
0.966666666667 0.966666666667 0.399878653029 0 0 1 0 0 0
0.299999999999 0.299999999999 0.449982943842 0 0 1 0 0 0
0.966666666667 0.966666666667 0.500092227676 0 0 1 0 0 0
0.633333333333 0.633333333333 0.549968011054 0 0 1 0 0 0
0.299999999999 0.299999999999 0.600007828883 0 0 1 0 0 0
0.966666666667 0.966666666667 0.649847991315 0 0 1 0 0 0
0.333333333332 0.333333333332 0.700160385218 0 0 1 0 0 0
0 0 0.750051331155 0 0 1 0 0 0
0.666666666668 0.666666666668 0.799926613103 0 0 1 0 0 0
0.333333333332 0.333333333332 0.850131551943 0 0 1 0 0 0
0 0 0.899894297339 0 0 1 0 0 0
0.666666666668 0.666666666668 0.95000073874 0 0 1 0 0 0
