INPUT_PARAMETERS
#Parameters (1.General)
suffix			blpstest
calculation     scf
ntype			1
nbands			15
symmetry		1
pseudo_dir      /home/dell/2_software/g_pPROFESS/BLPSLibrary-master/LDA/real
pseudo_type     blps
pseudo_rcut     16

#Parameters (2.Iteration)
ecutwfc			75
dr2				1e-6
niter			100


#Parameters (3.Basis)
basis_type		pw

#Parameters (4.Smearing)
smearing		gauss
sigma			0.0074

#Parameters (5.Mixing)
mixing_type		pulay
mixing_beta		0.7
