%BLOCK LATTICE_CART
   2.806843720900000   0.000000000000000   0.000000000000000
   1.403421860450000   2.430797966752238   0.000000000000000
   0.000000000000003   0.000000000000002  45.911605315804813
%END BLOCK LATTICE_CART
%BLOCK POSITIONS_FRAC
    Al   0.000000000000000   0.000000000000000   0.000452604677272
    Al   0.333333333300000   0.333333333300000   0.050270883235598
    Al   0.666666666700000   0.666666666700000   0.100162773526868
    Al   0.000000000000000   0.000000000000000   0.150032563148205
    Al   0.333333333300000   0.333333333300000   0.199857788731801
    Al   0.700000000000000   0.700000000000000   0.250029730406494
    Al   0.033333333300000   0.033333333300000   0.299846635898572
    Al   0.366666666700000   0.366666666700000   0.349770915472065
    Al   0.700000000000000   0.700000000000000   0.399566999329467
    Al   0.033333333300000   0.033333333300000   0.450000282421850
    Al   0.700000000000000   0.700000000000000   0.500433576802519
    Al   0.366666666700000   0.366666666700000   0.550229641264784
    Al   0.033333333300000   0.033333333300000   0.600153791148725
    Al   0.700000000000000   0.700000000000000   0.649970446350584
    Al   0.333333333300000   0.333333333300000   0.700142143804315
    Al   0.000000000000000   0.000000000000000   0.749967211643401
    Al   0.666666666700000   0.666666666700000   0.799836885341067
    Al   0.333333333300000   0.333333333300000   0.849728613597581
    Al   0.000000000000000   0.000000000000000   0.899546725780843
    Al   0.666666666700000   0.666666666700000   0.949999623193778
%END BLOCK POSITIONS_FRAC
%BLOCK SPECIES_POT
    Al al.lda.recpot                                                                          
%END BLOCK SPECIES_POT
%BLOCK ION_OPTIMIZATION
           0           0           1
           0           0           1
           0           0           1
           0           0           1
           0           0           1
           0           0           1
           0           0           1
           0           0           1
           0           0           1
           0           0           1
           0           0           1
           0           0           1
           0           0           1
           0           0           1
           0           0           1
           0           0           1
           0           0           1
           0           0           1
           0           0           1
           0           0           1
%END BLOCK ION_OPTIMIZATION
