ATOMIC_SPECIES
Al 26.981539 Al_ONCV_PBE-1.2.upf

LATTICE_CONSTANT
7.4984327225523  // add lattice constant

LATTICE_VECTORS
0.707106781187    0.000000000000    0.000000000000    
0.353553390593    0.612372435696    0.000000000000    
0.000000000000    0.000000000000    11.547005383792515 

ATOMIC_POSITIONS
Direct

Al
0.0
20
    1.6666677298E-11  1.6666677298E-11  1.8691615922E-04 1 1 1
    3.3333333335E-01  3.3333333335E-01  4.9881887869E-02 1 1 1
    6.6666666668E-01  6.6666666668E-01  1.0001312788E-01 1 1 1
    1.6666677298E-11  1.6666677298E-11  1.4996145368E-01 1 1 1
    3.3333333335E-01  3.3333333335E-01  2.0000000000E-01 1 1 1
    6.6666666668E-01  6.6666666668E-01  2.5003854632E-01 1 1 1
    1.6666677298E-11  1.6666677298E-11  2.9998687212E-01 1 1 1
    3.3333333335E-01  3.3333333335E-01  3.5011811213E-01 1 1 1
    6.6666666668E-01  6.6666666668E-01  3.9981308384E-01 1 1 1
    1.6666677298E-11  1.6666677298E-11  4.5000000000E-01 1 1 1
    6.6666666668E-01  6.6666666668E-01  5.0018691616E-01 1 1 1
    3.3333333335E-01  3.3333333335E-01  5.4988188787E-01 1 1 1
    1.6666677298E-11  1.6666677298E-11  6.0001312788E-01 1 1 1
    6.6666666668E-01  6.6666666668E-01  6.4996145368E-01 1 1 1
    3.3333333335E-01  3.3333333335E-01  7.0000000000E-01 1 1 1
    1.6666677298E-11  1.6666677298E-11  7.5003854632E-01 1 1 1
    6.6666666668E-01  6.6666666668E-01  7.9998687212E-01 1 1 1
    3.3333333335E-01  3.3333333335E-01  8.5011811213E-01 1 1 1
    1.6666677298E-11  1.6666677298E-11  8.9981308384E-01 1 1 1
    6.6666666668E-01  6.6666666668E-01  9.5000000000E-01 1 1 1
