%BLOCK LATTICE_CART
1.496918061641    -2.592738137529    0.000000000000    
1.496918061641    2.592738137529    0.000000000000    
0.000000000000    0.000000000000    4.851482990000    
%END BLOCK LATTICE_CART
%BLOCK POSITIONS_FRAC
Mg    0.000000000000    0.000000000000    0.500000000000
Al    0.333333333333    0.666666666667    0.000000000000
%END BLOCK POSITIONS_FRAC
%BLOCK SPECIES_POT
Mg mg.gga.recpot
Al al.gga.recpot
%END BLOCK SPECIES_POT
