ATOMIC_SPECIES
C 12 /home/mhchen_pkuhpc/mhchen_cls/lustre2/5_liurenxi/03a01_abacus-lcao-scan/pp/SG15_ONCV_v1.0_upf/C_ONCV_PBE-1.0.upf
H 1 /home/mhchen_pkuhpc/mhchen_cls/lustre2/5_liurenxi/03a01_abacus-lcao-scan/pp/SG15_ONCV_v1.0_upf/H_ONCV_PBE-1.0.upf
C_empty 12 /home/mhchen_pkuhpc/mhchen_cls/lustre2/5_liurenxi/03a01_abacus-lcao-scan/pp/SG15_ONCV_v1.0_upf/C_ONCV_PBE-1.0.upf
H_empty 1 /home/mhchen_pkuhpc/mhchen_cls/lustre2/5_liurenxi/03a01_abacus-lcao-scan/pp/SG15_ONCV_v1.0_upf/H_ONCV_PBE-1.0.upf

LATTICE_CONSTANT
1.8897161646321

LATTICE_VECTORS
20 0 0
0 20 0
0 0 20

NUMERICAL_ORBITAL
/home/mhchen_pkuhpc/mhchen_cls/lustre2/5_liurenxi/03a01_abacus-lcao-scan/orb/Orb_DZP_E100_Full/C/C_gga_10au_100Ry_2s2p1d.orb
/home/mhchen_pkuhpc/mhchen_cls/lustre2/5_liurenxi/03a01_abacus-lcao-scan/orb/Orb_DZP_E100_Full/H/H_gga_10au_100Ry_2s1p.orb
/home/mhchen_pkuhpc/mhchen_cls/lustre2/5_liurenxi/03a01_abacus-lcao-scan/orb/Orb_DZP_E100_Full/C/C_gga_10au_100Ry_2s2p1d.orb
/home/mhchen_pkuhpc/mhchen_cls/lustre2/5_liurenxi/03a01_abacus-lcao-scan/orb/Orb_DZP_E100_Full/H/H_gga_10au_100Ry_2s1p.orb

ATOMIC_POSITIONS
Cartesian    # Cartesian(Unit is LATTICE_CONSTANT)
C
0.0
6
1.047825 1.421674 0.000000 m 0 0 0 
1.454503 0.855446 -1.206205 m 0 0 0 
1.454503 0.855446 1.206205 m 0 0 0 
2.266797 -0.277161 -1.206954 m 0 0 0 
2.671478 -0.845021 0.000000 m 0 0 0 
2.266797 -0.277161 1.206954 m 0 0 0 
H
0.0
6
0.406025 2.291905 0.000000 m 0 0 0 
1.133853 1.292059 2.142315 m 0 0 0 
2.582494 -0.716307 2.143798 m 0 0 0 
3.303042 -1.723270 0.000000 m 0 0 0 
2.582494 -0.716307 -2.143798 m 0 0 0 
1.133853 1.292059 -2.142315 m 0 0 0 
C_empty
0.0
6
-1.047825 -1.421674 0.000000 m 0 0 0 
-1.454503 -0.855446 1.206205 m 0 0 0 
-1.454503 -0.855446 -1.206205 m 0 0 0 
-2.266797 0.277161 1.206954 m 0 0 0 
-2.671478 0.845021 0.000000 m 0 0 0 
-2.266797 0.277161 -1.206954 m 0 0 0 
H_empty
0.0
6
-1.133853 -1.292059 -2.142315 m 0 0 0 
-2.582494 0.716307 -2.143798 m 0 0 0 
-3.303042 1.723270 0.000000 m 0 0 0 
-2.582494 0.716307 2.143798 m 0 0 0 
-1.133853 -1.292059 2.142315 m 0 0 0 
-0.406025 -2.291905 0.000000 m 0 0 0 
