%BLOCK LATTICE_CART
  -1.591693759075955   1.591963693965226   1.591963663315265
   1.591963604199264  -1.591693739243971   1.591963643418332
   1.591963597169211   1.591963667038241  -1.591693732197902
%END BLOCK LATTICE_CART
%BLOCK POSITIONS_FRAC
    Al   0.000000000000000   0.000000000000000   0.000000000000000
%END BLOCK POSITIONS_FRAC
%BLOCK SPECIES_POT
    Al al.lda.recpot                                                                          
%END BLOCK SPECIES_POT
