%BLOCK LATTICE_CART
2.779040206777    0.000000000000    0.000000000000    
-1.389520103389    2.406719417207    0.000000000000    
0.000000000000    0.000000000000    4.701370095478    
%END BLOCK LATTICE_CART
%BLOCK POSITIONS_FRAC
Al    0.000000000000    0.000000000000    0.000000000000
Al    0.666666666667    0.333333333333    0.500000000000
%END BLOCK POSITIONS_FRAC
%BLOCK SPECIES_POT
Al al.lda.recpot
%END BLOCK SPECIES_POT
