%BLOCK LATTICE_CART
-2.3277227735142287 2.3277227735142287 1.2698662891911603
2.3277227735142287 -2.3277227735142287 1.2698662891911603
2.3277227735142287 2.3277227735142287 -1.2698662891911603
%END BLOCK LATTICE_CART
%BLOCK POSITIONS_FRAC
Si 0 0 0
Si 0.75 0.25 0.5
%END BLOCK POSITIONS_FRAC
%BLOCK SPECIES_POT
Si si.lda.recpot
%END BLOCK SPECIES_POT
