ATOMIC_SPECIES
Al 27 al.lda.lps

LATTICE_CONSTANT
7.50241114482

LATTICE_VECTORS
0.707106781187 0 0 #latvec1
0.353553390593 0.612372435696 0 #latvec2
0 0 12.124355653 #latvec3

ATOMIC_POSITIONS
Direct

Al #label
0 #magnetism
21 #number of atoms
0  0  0  m  0  0  1
0.333333333332  0.333333333332  0.0476003256315  m  0  0  1
0.666666666668  0.666666666668  0.0952076377798  m  0  0  1
0  0  0.142829580946  m  0  0  1
0.333333333332  0.333333333332  0.190460959411  m  0  0  1
0.666666666668  0.666666666668  0.238097055345  m  0  0  1
0  0  0.285740986234  m  0  0  1
0.333333333332  0.333333333332  0.333376814839  m  0  0  1
0.666666666668  0.666666666668  0.380994646646  m  0  0  1
0  0  0.42860312104  m  0  0  1
0.333333333332  0.333333333332  0.476202523179  m  0  0  1
0.666666666668  0.666666666668  0.523797476821  m  0  0  1
0  0  0.57139687896  m  0  0  1
0.333333333332  0.333333333332  0.619005353354  m  0  0  1
0.666666666668  0.666666666668  0.666623185161  m  0  0  1
0  0  0.714259013766  m  0  0  1
0.333333333332  0.333333333332  0.761902944655  m  0  0  1
0.666666666668  0.666666666668  0.809539040589  m  0  0  1
0  0  0.857170419054  m  0  0  1
0.333333333332  0.333333333332  0.90479236222  m  0  0  1
0.666666666668  0.666666666668  0.952399674369  m  0  0  1
