Transformation
0.529176965773
32.125341805842  0.000000000000  0.000000000000
0.000000000000  34.015067794421  0.000000000000
0.000000000000  0.000000000000  202.042881098995
C  
1000  
Direct
0.631612000000  0.511909000000  0.006667000000  
0.642926000000  0.444444000000  0.013333000000  
0.642926000000  0.444444000000  0.026667000000  
0.631612000000  0.511909000000  0.033333000000  
0.631612000000  0.511909000000  0.046667000000  
0.642926000000  0.444444000000  0.053333000000  
0.642926000000  0.444444000000  0.066667000000  
0.631612000000  0.511909000000  0.073333000000  
0.631612000000  0.511909000000  0.086667000000  
0.642926000000  0.444940000000  0.093326000000  
0.642926000000  0.444920000000  0.106491000000  
0.631913000000  0.511028000000  0.113286000000  
0.632719000000  0.508601000000  0.126642000000  
0.642871000000  0.439692000000  0.132739000000  
0.642710000000  0.435006000000  0.146099000000  
0.636579000000  0.495251000000  0.152645000000  
0.635812000000  0.498189000000  0.165450000000  
0.642784000000  0.436785000000  0.172669000000  
0.642907000000  0.441666000000  0.186472000000  
0.632038000000  0.510659000000  0.192512000000  
0.630963000000  0.513767000000  0.206737000000  
0.642916000000  0.446481000000  0.214549000000  
0.642408000000  0.459059000000  0.229099000000  
0.627652000000  0.522486000000  0.233419000000  
0.627550000000  0.522739000000  0.246436000000  
0.642486000000  0.457910000000  0.251078000000  
0.642920000000  0.446073000000  0.265513000000  
0.631363000000  0.512630000000  0.272879000000  
0.631790000000  0.511389000000  0.286502000000  
0.642926000000  0.444554000000  0.293015000000  
0.642926000000  0.444432000000  0.306657000000  
0.631612000000  0.511909000000  0.313333000000  
0.631612000000  0.511909000000  0.326667000000  
0.642926000000  0.444187000000  0.333327000000  
0.642924000000  0.443499000000  0.346841000000  
0.632219000000  0.510119000000  0.353509000000  
0.632391000000  0.509601000000  0.366901000000  
0.642775000000  0.436551000000  0.374143000000  
0.642870000000  0.439630000000  0.387478000000  
0.631940000000  0.510949000000  0.393617000000  
0.631255000000  0.512938000000  0.407105000000  
0.642913000000  0.446743000000  0.413996000000  
0.642923000000  0.445531000000  0.426996000000  
0.631713000000  0.511614000000  0.433619000000  
0.631874000000  0.511144000000  0.446562000000  
0.642911000000  0.441941000000  0.453327000000  
0.642919000000  0.442788000000  0.466569000000  
0.631612000000  0.511909000000  0.473333000000  
0.631585000000  0.511987000000  0.486706000000  
0.642926000000  0.444795000000  0.493371000000  
0.642926000000  0.444805000000  0.506973000000  
0.631656000000  0.511782000000  0.513738000000  
0.631699000000  0.511656000000  0.528167000000  
0.642923000000  0.443325000000  0.534490000000  
0.642457000000  0.430537000000  0.548979000000  
0.618606000000  0.541920000000  0.559822000000  
0.639916000000  0.479562000000  0.559820000000  
0.642407000000  0.429825000000  0.570840000000  
0.642912000000  0.442027000000  0.585203000000  
0.631742000000  0.511529000000  0.591521000000  
0.631534000000  0.512136000000  0.605945000000  
0.642926000000  0.444384000000  0.612933000000  
0.642926000000  0.444775000000  0.626632000000  
0.631619000000  0.511889000000  0.633282000000  
0.631612000000  0.511909000000  0.646667000000  
0.642926000000  0.444698000000  0.653309000000  
0.642926000000  0.444755000000  0.666579000000  
0.631612000000  0.511909000000  0.673333000000  
0.631649000000  0.511802000000  0.686515000000  
0.642926000000  0.444903000000  0.692909000000  
0.642918000000  0.442671000000  0.706335000000  
0.631763000000  0.511470000000  0.713360000000  
0.632022000000  0.510707000000  0.726484000000  
0.642916000000  0.442390000000  0.733045000000  
0.642921000000  0.442980000000  0.746566000000  
0.631656000000  0.511781000000  0.753320000000  
0.631612000000  0.511909000000  0.766667000000  
0.642926000000  0.444347000000  0.773303000000  
0.642926000000  0.444307000000  0.786644000000  
0.631612000000  0.511909000000  0.793333000000  
0.631719000000  0.511598000000  0.806683000000  
0.642913000000  0.442153000000  0.813435000000  
0.642906000000  0.441592000000  0.826934000000  
0.631999000000  0.510774000000  0.833509000000  
0.631782000000  0.511415000000  0.846617000000  
0.642920000000  0.442870000000  0.853677000000  
0.642925000000  0.444982000000  0.866928000000  
0.631560000000  0.512060000000  0.873352000000  
0.631426000000  0.512447000000  0.886663000000  
0.642925000000  0.445237000000  0.893357000000  
0.642926000000  0.444901000000  0.906684000000  
0.631612000000  0.511909000000  0.913333000000  
0.631612000000  0.511909000000  0.926667000000  
0.642926000000  0.444444000000  0.933333000000  
0.642926000000  0.444444000000  0.946667000000  
0.631612000000  0.511909000000  0.953333000000  
0.631612000000  0.511909000000  0.966667000000  
0.642926000000  0.444444000000  0.973333000000  
0.642926000000  0.444444000000  0.986667000000  
0.631612000000  0.511909000000  0.993333000000  
0.547638000000  0.621068000000  0.006667000000  
0.598778000000  0.572769000000  0.013333000000  
0.598778000000  0.572769000000  0.026667000000  
0.547638000000  0.621068000000  0.033333000000  
0.547638000000  0.621068000000  0.046667000000  
0.598778000000  0.572769000000  0.053333000000  
0.598778000000  0.572769000000  0.066667000000  
0.547638000000  0.621068000000  0.073333000000  
0.547638000000  0.621068000000  0.086667000000  
0.598860000000  0.572663000000  0.093344000000  
0.599364000000  0.572005000000  0.106858000000  
0.549970000000  0.619447000000  0.113742000000  
0.553553000000  0.616871000000  0.127878000000  
0.603964000000  0.565742000000  0.133724000000  
0.609411000000  0.557666000000  0.147145000000  
0.509097000000  0.642467000000  0.151830000000  
0.574754000000  0.599259000000  0.155821000000  
0.606215000000  0.562499000000  0.169388000000  
0.597869000000  0.573943000000  0.184266000000  
0.546743000000  0.621679000000  0.190993000000  
0.548740000000  0.620307000000  0.206083000000  
0.598239000000  0.573467000000  0.212814000000  
0.596673000000  0.575462000000  0.226765000000  
0.545959000000  0.622209000000  0.233129000000  
0.545727000000  0.622366000000  0.246803000000  
0.596227000000  0.576021000000  0.253094000000  
0.597682000000  0.574182000000  0.266516000000  
0.547387000000  0.621240000000  0.273279000000  
0.547638000000  0.621068000000  0.286667000000  
0.598796000000  0.572747000000  0.293307000000  
0.598778000000  0.572769000000  0.306667000000  
0.547638000000  0.621068000000  0.313333000000  
0.547638000000  0.621068000000  0.326667000000  
0.598778000000  0.572769000000  0.333333000000  
0.598913000000  0.572593000000  0.346746000000  
0.548067000000  0.620773000000  0.353389000000  
0.547883000000  0.620900000000  0.366680000000  
0.599821000000  0.571403000000  0.373525000000  
0.599504000000  0.571820000000  0.386670000000  
0.547638000000  0.621068000000  0.393333000000  
0.547537000000  0.621137000000  0.406668000000  
0.598550000000  0.573065000000  0.413459000000  
0.598349000000  0.573325000000  0.426831000000  
0.547642000000  0.621065000000  0.433368000000  
0.547659000000  0.621054000000  0.446647000000  
0.598804000000  0.572736000000  0.453308000000  
0.598778000000  0.572769000000  0.466667000000  
0.547554000000  0.621126000000  0.473341000000  
0.547482000000  0.621175000000  0.486669000000  
0.598766000000  0.572785000000  0.493374000000  
0.598622000000  0.572973000000  0.506936000000  
0.547987000000  0.620829000000  0.513434000000  
0.546844000000  0.621611000000  0.527098000000  
0.597673000000  0.574194000000  0.534573000000  
0.589766000000  0.583734000000  0.548932000000  
0.536741000000  0.628106000000  0.553551000000  
0.536833000000  0.628050000000  0.566563000000  
0.589917000000  0.583562000000  0.570993000000  
0.598233000000  0.573474000000  0.585178000000  
0.547009000000  0.621498000000  0.592733000000  
0.548440000000  0.620515000000  0.606323000000  
0.598279000000  0.573415000000  0.612805000000  
0.598701000000  0.572869000000  0.626634000000  
0.547638000000  0.621068000000  0.633333000000  
0.547638000000  0.621068000000  0.646667000000  
0.598778000000  0.572769000000  0.653333000000  
0.598778000000  0.572769000000  0.666667000000  
0.547638000000  0.621068000000  0.673333000000  
0.547638000000  0.621068000000  0.686667000000  
0.598778000000  0.572769000000  0.693333000000  
0.598768000000  0.572782000000  0.706692000000  
0.547655000000  0.621056000000  0.713353000000  
0.547638000000  0.621068000000  0.726667000000  
0.598894000000  0.572618000000  0.733310000000  
0.598778000000  0.572769000000  0.746667000000  
0.547638000000  0.621068000000  0.753333000000  
0.547638000000  0.621068000000  0.766667000000  
0.598778000000  0.572769000000  0.773333000000  
0.598778000000  0.572769000000  0.786667000000  
0.547638000000  0.621068000000  0.793333000000  
0.547638000000  0.621068000000  0.806667000000  
0.598990000000  0.572493000000  0.813365000000  
0.598805000000  0.572734000000  0.826675000000  
0.547638000000  0.621068000000  0.833333000000  
0.547880000000  0.620902000000  0.846599000000  
0.598820000000  0.572714000000  0.853239000000  
0.598662000000  0.572920000000  0.866574000000  
0.547445000000  0.621201000000  0.873278000000  
0.547591000000  0.621100000000  0.886666000000  
0.598639000000  0.572950000000  0.893336000000  
0.598778000000  0.572769000000  0.906667000000  
0.547638000000  0.621068000000  0.913333000000  
0.547638000000  0.621068000000  0.926667000000  
0.598778000000  0.572769000000  0.933333000000  
0.598778000000  0.572769000000  0.946667000000  
0.547638000000  0.621068000000  0.953333000000  
0.547638000000  0.621068000000  0.966667000000  
0.598778000000  0.572769000000  0.973333000000  
0.598778000000  0.572769000000  0.986667000000  
0.547638000000  0.621068000000  0.993333000000  
0.411765000000  0.662764000000  0.006667000000  
0.483197000000  0.652078000000  0.013333000000  
0.483197000000  0.652078000000  0.026667000000  
0.411765000000  0.662764000000  0.033333000000  
0.411765000000  0.662764000000  0.046667000000  
0.483197000000  0.652078000000  0.053333000000  
0.483197000000  0.652078000000  0.066667000000  
0.411765000000  0.662764000000  0.073333000000  
0.411958000000  0.662763000000  0.086700000000  
0.483818000000  0.651887000000  0.093363000000  
0.484697000000  0.651613000000  0.107170000000  
0.412755000000  0.662762000000  0.114076000000  
0.413265000000  0.662759000000  0.128220000000  
0.494848000000  0.648175000000  0.135458000000  
0.452847000000  0.659288000000  0.159559000000  
0.377822000000  0.660397000000  0.156557000000  
0.334597000000  0.650240000000  0.166877000000  
0.443682000000  0.660672000000  0.173888000000  
0.480545000000  0.652876000000  0.186255000000  
0.414136000000  0.662752000000  0.194523000000  
0.414402000000  0.662749000000  0.207080000000  
0.482424000000  0.652314000000  0.213267000000  
0.482645000000  0.652247000000  0.226652000000  
0.411197000000  0.662763000000  0.233393000000  
0.411385000000  0.662763000000  0.246674000000  
0.482863000000  0.652181000000  0.253368000000  
0.483161000000  0.652089000000  0.266664000000  
0.411765000000  0.662764000000  0.273333000000  
0.411765000000  0.662764000000  0.286667000000  
0.483197000000  0.652078000000  0.293333000000  
0.483197000000  0.652078000000  0.306667000000  
0.411765000000  0.662764000000  0.313333000000  
0.411765000000  0.662764000000  0.326667000000  
0.483197000000  0.652078000000  0.333333000000  
0.483252000000  0.652061000000  0.346668000000  
0.411765000000  0.662764000000  0.353333000000  
0.411788000000  0.662764000000  0.366659000000  
0.483197000000  0.652078000000  0.373333000000  
0.483360000000  0.652028000000  0.386660000000  
0.412397000000  0.662763000000  0.393311000000  
0.412294000000  0.662763000000  0.406670000000  
0.483169000000  0.652087000000  0.413285000000  
0.483197000000  0.652078000000  0.426667000000  
0.411913000000  0.662763000000  0.433298000000  
0.411691000000  0.662763000000  0.446639000000  
0.483197000000  0.652078000000  0.453333000000  
0.482988000000  0.652142000000  0.466670000000  
0.410075000000  0.662758000000  0.473384000000  
0.409910000000  0.662757000000  0.486466000000  
0.483220000000  0.652071000000  0.493312000000  
0.483071000000  0.652117000000  0.506643000000  
0.412064000000  0.662763000000  0.513241000000  
0.411904000000  0.662763000000  0.526593000000  
0.481622000000  0.652556000000  0.533410000000  
0.479176000000  0.653274000000  0.546915000000  
0.409310000000  0.662751000000  0.552953000000  
0.407285000000  0.662723000000  0.566588000000  
0.477761000000  0.653677000000  0.573213000000  
0.480221000000  0.652971000000  0.586349000000  
0.408849000000  0.662746000000  0.593172000000  
0.410111000000  0.662758000000  0.606540000000  
0.483305000000  0.652045000000  0.613152000000  
0.483437000000  0.652005000000  0.626617000000  
0.411713000000  0.662764000000  0.633301000000  
0.411727000000  0.662764000000  0.646669000000  
0.483197000000  0.652078000000  0.653333000000  
0.483197000000  0.652078000000  0.666667000000  
0.411765000000  0.662764000000  0.673333000000  
0.411765000000  0.662764000000  0.686667000000  
0.483197000000  0.652078000000  0.693333000000  
0.483197000000  0.652078000000  0.706667000000  
0.411765000000  0.662764000000  0.713333000000  
0.411765000000  0.662764000000  0.726667000000  
0.483197000000  0.652078000000  0.733333000000  
0.483197000000  0.652078000000  0.746667000000  
0.411765000000  0.662764000000  0.753333000000  
0.411765000000  0.662764000000  0.766667000000  
0.483197000000  0.652078000000  0.773333000000  
0.483197000000  0.652078000000  0.786667000000  
0.411765000000  0.662764000000  0.793333000000  
0.411765000000  0.662764000000  0.806667000000  
0.483197000000  0.652078000000  0.813333000000  
0.483197000000  0.652078000000  0.826667000000  
0.411765000000  0.662764000000  0.833333000000  
0.411765000000  0.662764000000  0.846667000000  
0.483197000000  0.652078000000  0.853333000000  
0.483197000000  0.652078000000  0.866667000000  
0.411765000000  0.662764000000  0.873333000000  
0.411765000000  0.662764000000  0.886667000000  
0.483197000000  0.652078000000  0.893333000000  
0.483197000000  0.652078000000  0.906667000000  
0.411765000000  0.662764000000  0.913333000000  
0.411765000000  0.662764000000  0.926667000000  
0.483197000000  0.652078000000  0.933333000000  
0.483197000000  0.652078000000  0.946667000000  
0.411765000000  0.662764000000  0.953333000000  
0.411765000000  0.662764000000  0.966667000000  
0.483197000000  0.652078000000  0.973333000000  
0.483197000000  0.652078000000  0.986667000000  
0.411765000000  0.662764000000  0.993333000000  
0.275891000000  0.621068000000  0.006667000000  
0.340332000000  0.652078000000  0.013333000000  
0.340332000000  0.652078000000  0.026667000000  
0.275891000000  0.621068000000  0.033333000000  
0.275891000000  0.621068000000  0.046667000000  
0.340332000000  0.652078000000  0.053333000000  
0.340332000000  0.652078000000  0.066667000000  
0.275851000000  0.621041000000  0.073347000000  
0.275592000000  0.620862000000  0.086831000000  
0.339203000000  0.651729000000  0.093511000000  
0.338569000000  0.651530000000  0.107124000000  
0.269741000000  0.616698000000  0.114096000000  
0.270679000000  0.617385000000  0.127140000000  
0.340898000000  0.652251000000  0.134341000000  
0.332383000000  0.649487000000  0.146877000000  
0.268026000000  0.615425000000  0.152437000000  
0.272735000000  0.618864000000  0.164460000000  
0.368351000000  0.658879000000  0.175971000000  
0.349295000000  0.654640000000  0.187773000000  
0.280488000000  0.624142000000  0.193176000000  
0.277615000000  0.622239000000  0.206824000000  
0.340999000000  0.652282000000  0.213713000000  
0.339938000000  0.651957000000  0.226764000000  
0.275959000000  0.621115000000  0.233345000000  
0.275891000000  0.621068000000  0.246667000000  
0.340319000000  0.652074000000  0.253335000000  
0.340332000000  0.652078000000  0.266667000000  
0.275891000000  0.621068000000  0.273333000000  
0.275891000000  0.621068000000  0.286667000000  
0.340332000000  0.652078000000  0.293333000000  
0.340332000000  0.652078000000  0.306667000000  
0.275891000000  0.621068000000  0.313333000000  
0.275891000000  0.621068000000  0.326667000000  
0.340332000000  0.652078000000  0.333333000000  
0.340332000000  0.652078000000  0.346667000000  
0.275891000000  0.621068000000  0.353333000000  
0.276215000000  0.621290000000  0.366696000000  
0.340644000000  0.652174000000  0.373316000000  
0.340891000000  0.652249000000  0.386621000000  
0.278346000000  0.622729000000  0.393063000000  
0.278289000000  0.622691000000  0.406712000000  
0.341782000000  0.652518000000  0.413295000000  
0.341532000000  0.652443000000  0.426647000000  
0.278648000000  0.622931000000  0.432931000000  
0.276865000000  0.621733000000  0.446025000000  
0.340052000000  0.651992000000  0.453127000000  
0.337924000000  0.651326000000  0.466418000000  
0.269616000000  0.616606000000  0.472627000000  
0.267848000000  0.615291000000  0.485912000000  
0.337254000000  0.651111000000  0.493084000000  
0.338080000000  0.651375000000  0.506416000000  
0.275829000000  0.621026000000  0.513024000000  
0.276930000000  0.621777000000  0.526158000000  
0.342712000000  0.652795000000  0.532909000000  
0.341684000000  0.652489000000  0.546046000000  
0.279986000000  0.623814000000  0.551628000000  
0.271326000000  0.617854000000  0.563589000000  
0.333553000000  0.649888000000  0.572624000000  
0.331108000000  0.649043000000  0.585977000000  
0.268964000000  0.616124000000  0.592941000000  
0.273270000000  0.619243000000  0.606575000000  
0.340383000000  0.652094000000  0.613267000000  
0.340651000000  0.652176000000  0.626639000000  
0.275891000000  0.621068000000  0.633333000000  
0.275891000000  0.621068000000  0.646667000000  
0.340332000000  0.652078000000  0.653333000000  
0.340332000000  0.652078000000  0.666667000000  
0.275891000000  0.621068000000  0.673333000000  
0.275891000000  0.621068000000  0.686667000000  
0.340332000000  0.652078000000  0.693333000000  
0.340332000000  0.652078000000  0.706667000000  
0.275891000000  0.621068000000  0.713333000000  
0.275891000000  0.621068000000  0.726667000000  
0.340332000000  0.652078000000  0.733333000000  
0.340332000000  0.652078000000  0.746667000000  
0.275891000000  0.621068000000  0.753333000000  
0.275891000000  0.621068000000  0.766667000000  
0.340332000000  0.652078000000  0.773333000000  
0.340332000000  0.652078000000  0.786667000000  
0.275891000000  0.621068000000  0.793333000000  
0.275891000000  0.621068000000  0.806667000000  
0.340332000000  0.652078000000  0.813333000000  
0.340332000000  0.652078000000  0.826667000000  
0.275891000000  0.621068000000  0.833333000000  
0.275891000000  0.621068000000  0.846667000000  
0.340332000000  0.652078000000  0.853333000000  
0.340332000000  0.652078000000  0.866667000000  
0.275891000000  0.621068000000  0.873333000000  
0.275891000000  0.621068000000  0.886667000000  
0.340332000000  0.652078000000  0.893333000000  
0.340332000000  0.652078000000  0.906667000000  
0.275891000000  0.621068000000  0.913333000000  
0.275891000000  0.621068000000  0.926667000000  
0.340332000000  0.652078000000  0.933333000000  
0.340332000000  0.652078000000  0.946667000000  
0.275891000000  0.621068000000  0.953333000000  
0.275891000000  0.621068000000  0.966667000000  
0.340332000000  0.652078000000  0.973333000000  
0.340332000000  0.652078000000  0.986667000000  
0.275891000000  0.621068000000  0.993333000000  
0.191917000000  0.511909000000  0.006667000000  
0.224751000000  0.572769000000  0.013333000000  
0.224751000000  0.572769000000  0.026667000000  
0.191917000000  0.511909000000  0.033333000000  
0.191917000000  0.511909000000  0.046667000000  
0.224751000000  0.572769000000  0.053333000000  
0.224751000000  0.572769000000  0.066667000000  
0.191917000000  0.511909000000  0.073333000000  
0.191635000000  0.511083000000  0.086412000000  
0.223518000000  0.571150000000  0.093369000000  
0.220728000000  0.567369000000  0.106869000000  
0.186389000000  0.492983000000  0.112270000000  
0.181282000000  0.461160000000  0.125153000000  
0.219836000000  0.566124000000  0.135999000000  
0.225462000000  0.573687000000  0.147387000000  
0.193330000000  0.515886000000  0.154255000000  
0.192968000000  0.514890000000  0.166633000000  
0.226292000000  0.574749000000  0.172524000000  
0.228232000000  0.577176000000  0.186057000000  
0.193650000000  0.516753000000  0.192874000000  
0.193292000000  0.515781000000  0.206600000000  
0.225751000000  0.574058000000  0.213288000000  
0.225138000000  0.573270000000  0.226699000000  
0.191906000000  0.511877000000  0.233314000000  
0.191849000000  0.511711000000  0.246659000000  
0.224751000000  0.572769000000  0.253333000000  
0.224751000000  0.572769000000  0.266667000000  
0.191917000000  0.511909000000  0.273333000000  
0.191917000000  0.511909000000  0.286667000000  
0.224751000000  0.572769000000  0.293333000000  
0.224751000000  0.572769000000  0.306667000000  
0.191917000000  0.511909000000  0.313333000000  
0.191860000000  0.511743000000  0.326720000000  
0.224751000000  0.572769000000  0.333333000000  
0.224974000000  0.573059000000  0.346712000000  
0.191806000000  0.511583000000  0.353542000000  
0.192357000000  0.513174000000  0.367082000000  
0.225859000000  0.574197000000  0.373399000000  
0.227323000000  0.576047000000  0.386635000000  
0.195927000000  0.522610000000  0.393297000000  
0.196065000000  0.522949000000  0.406276000000  
0.228363000000  0.577337000000  0.412969000000  
0.226993000000  0.575633000000  0.425969000000  
0.193253000000  0.515675000000  0.432263000000  
0.193952000000  0.517560000000  0.444887000000  
0.227600000000  0.576393000000  0.451599000000  
0.221054000000  0.567821000000  0.463603000000  
0.186885000000  0.494995000000  0.465204000000  
0.186578000000  0.493760000000  0.487719000000  
0.220004000000  0.566360000000  0.492965000000  
0.223343000000  0.570918000000  0.506603000000  
0.191695000000  0.511261000000  0.513699000000  
0.192607000000  0.513882000000  0.526694000000  
0.226927000000  0.575550000000  0.532935000000  
0.229194000000  0.578355000000  0.545155000000  
0.198908000000  0.529588000000  0.552566000000  
0.198561000000  0.528812000000  0.574908000000  
0.214297000000  0.557943000000  0.565343000000  
0.213539000000  0.556759000000  0.587607000000  
0.189722000000  0.505160000000  0.595022000000  
0.190820000000  0.508632000000  0.607215000000  
0.223635000000  0.571306000000  0.613521000000  
0.224545000000  0.572500000000  0.626711000000  
0.191917000000  0.511909000000  0.633333000000  
0.191917000000  0.511909000000  0.646667000000  
0.224751000000  0.572769000000  0.653333000000  
0.224751000000  0.572769000000  0.666667000000  
0.191917000000  0.511909000000  0.673333000000  
0.191917000000  0.511909000000  0.686667000000  
0.224751000000  0.572769000000  0.693333000000  
0.224751000000  0.572769000000  0.706667000000  
0.191917000000  0.511909000000  0.713333000000  
0.191917000000  0.511909000000  0.726667000000  
0.224751000000  0.572769000000  0.733333000000  
0.224751000000  0.572769000000  0.746667000000  
0.191917000000  0.511909000000  0.753333000000  
0.191917000000  0.511909000000  0.766667000000  
0.224751000000  0.572769000000  0.773333000000  
0.224751000000  0.572769000000  0.786667000000  
0.191917000000  0.511909000000  0.793333000000  
0.191917000000  0.511909000000  0.806667000000  
0.224751000000  0.572769000000  0.813333000000  
0.224751000000  0.572769000000  0.826667000000  
0.191917000000  0.511909000000  0.833333000000  
0.191917000000  0.511909000000  0.846667000000  
0.224751000000  0.572769000000  0.853333000000  
0.224751000000  0.572769000000  0.866667000000  
0.191917000000  0.511909000000  0.873333000000  
0.191917000000  0.511909000000  0.886667000000  
0.224751000000  0.572769000000  0.893333000000  
0.224751000000  0.572769000000  0.906667000000  
0.191917000000  0.511909000000  0.913333000000  
0.191917000000  0.511909000000  0.926667000000  
0.224751000000  0.572769000000  0.933333000000  
0.224751000000  0.572769000000  0.946667000000  
0.191917000000  0.511909000000  0.953333000000  
0.191917000000  0.511909000000  0.966667000000  
0.224751000000  0.572769000000  0.973333000000  
0.224751000000  0.572769000000  0.986667000000  
0.191917000000  0.511909000000  0.993333000000  
0.191917000000  0.376980000000  0.006667000000  
0.180603000000  0.444444000000  0.013333000000  
0.180603000000  0.444444000000  0.026667000000  
0.191917000000  0.376980000000  0.033333000000  
0.191917000000  0.376980000000  0.046667000000  
0.180603000000  0.444444000000  0.053333000000  
0.180604000000  0.444007000000  0.066571000000  
0.192196000000  0.376174000000  0.073212000000  
0.192242000000  0.376044000000  0.086137000000  
0.180618000000  0.441985000000  0.092751000000  
0.180701000000  0.438089000000  0.104967000000  
0.194133000000  0.370849000000  0.111566000000  
0.190733000000  0.380526000000  0.123596000000  
0.186246000000  0.492387000000  0.134272000000  
0.181310000000  0.461503000000  0.147189000000  
0.189939000000  0.383028000000  0.153037000000  
0.190544000000  0.381111000000  0.166949000000  
0.180664000000  0.449438000000  0.173370000000  
0.180718000000  0.451327000000  0.186490000000  
0.188140000000  0.389153000000  0.193246000000  
0.188168000000  0.389052000000  0.206225000000  
0.180661000000  0.449308000000  0.212888000000  
0.180616000000  0.446728000000  0.226502000000  
0.191768000000  0.377416000000  0.232817000000  
0.192177000000  0.376229000000  0.246505000000  
0.180603000000  0.444327000000  0.253330000000  
0.180603000000  0.444348000000  0.266663000000  
0.191917000000  0.376980000000  0.273333000000  
0.191917000000  0.376980000000  0.286667000000  
0.180603000000  0.444444000000  0.293333000000  
0.180603000000  0.444444000000  0.306667000000  
0.191916000000  0.376983000000  0.313340000000  
0.191908000000  0.377007000000  0.326706000000  
0.180604000000  0.444787000000  0.333384000000  
0.180605000000  0.445152000000  0.347098000000  
0.191860000000  0.377148000000  0.353950000000  
0.191880000000  0.377087000000  0.368339000000  
0.180609000000  0.445964000000  0.374665000000  
0.181052000000  0.458041000000  0.388793000000  
0.206962000000  0.343201000000  0.400058000000  
0.183816000000  0.408175000000  0.399929000000  
0.181035000000  0.457778000000  0.410811000000  
0.180616000000  0.446717000000  0.424963000000  
0.191527000000  0.378125000000  0.431695000000  
0.189715000000  0.383752000000  0.446557000000  
0.181447000000  0.463081000000  0.452044000000  
0.181362000000  0.462117000000  0.474945000000  
0.189986000000  0.382877000000  0.476697000000  
0.193413000000  0.372778000000  0.488768000000  
0.180709000000  0.437859000000  0.495242000000  
0.180618000000  0.441997000000  0.507496000000  
0.191950000000  0.376886000000  0.514116000000  
0.191683000000  0.377665000000  0.527148000000  
0.180633000000  0.447937000000  0.533692000000  
0.180757000000  0.452415000000  0.547219000000  
0.189317000000  0.385068000000  0.554211000000  
0.190024000000  0.382755000000  0.567552000000  
0.180658000000  0.449190000000  0.576594000000  
0.180684000000  0.438673000000  0.588475000000  
0.192693000000  0.374765000000  0.594040000000  
0.192864000000  0.374288000000  0.606888000000  
0.180605000000  0.443654000000  0.613724000000  
0.180604000000  0.443968000000  0.626672000000  
0.191917000000  0.376980000000  0.633333000000  
0.191917000000  0.376980000000  0.646667000000  
0.180603000000  0.444444000000  0.653333000000  
0.180603000000  0.444444000000  0.666667000000  
0.191951000000  0.376882000000  0.673351000000  
0.191970000000  0.376828000000  0.686652000000  
0.180603000000  0.444444000000  0.693333000000  
0.180603000000  0.444444000000  0.706667000000  
0.191924000000  0.376961000000  0.713322000000  
0.191924000000  0.376961000000  0.726606000000  
0.180603000000  0.444444000000  0.733333000000  
0.180603000000  0.444444000000  0.746667000000  
0.191861000000  0.377143000000  0.753297000000  
0.191917000000  0.376980000000  0.766667000000  
0.180603000000  0.444444000000  0.773333000000  
0.180603000000  0.444444000000  0.786667000000  
0.191917000000  0.376980000000  0.793333000000  
0.191917000000  0.376980000000  0.806667000000  
0.180603000000  0.444444000000  0.813333000000  
0.180603000000  0.444444000000  0.826667000000  
0.191917000000  0.376980000000  0.833333000000  
0.191882000000  0.377083000000  0.846690000000  
0.180603000000  0.444444000000  0.853333000000  
0.180603000000  0.444444000000  0.866667000000  
0.191989000000  0.376773000000  0.873411000000  
0.191917000000  0.376980000000  0.886667000000  
0.180603000000  0.444444000000  0.893333000000  
0.180603000000  0.444444000000  0.906667000000  
0.191917000000  0.376980000000  0.913333000000  
0.191917000000  0.376980000000  0.926667000000  
0.180603000000  0.444444000000  0.933333000000  
0.180603000000  0.444444000000  0.946667000000  
0.191917000000  0.376980000000  0.953333000000  
0.191917000000  0.376980000000  0.966667000000  
0.180603000000  0.444444000000  0.973333000000  
0.180603000000  0.444444000000  0.986667000000  
0.191917000000  0.376980000000  0.993333000000  
0.275891000000  0.267821000000  0.006667000000  
0.224751000000  0.316120000000  0.013333000000  
0.224751000000  0.316120000000  0.026667000000  
0.275891000000  0.267821000000  0.033333000000  
0.275891000000  0.267821000000  0.046667000000  
0.224751000000  0.316120000000  0.053333000000  
0.224751000000  0.316120000000  0.066667000000  
0.275891000000  0.267821000000  0.073333000000  