ATOMIC_SPECIES
C 12.011 C_ONCV_PBE-1.0.upf

NUMERICAL_ORBITAL
C_gga_8au_60Ry_2s2p1d.orb

LATTICE_CONSTANT
1

LATTICE_VECTORS
32.1253418058417  0.00000000000000  0.000000000000000
0.00000000000000  34.0150677944206  0.000000000000000
0.00000000000000  0.00000000000000  202.0428810989945

ATOMIC_POSITIONS
Direct

C
0
1000
0.6316120000  0.5119090000  0.0066670000  1  1  1
0.6429260000  0.4444440000  0.0133330000  1  1  1
0.6429260000  0.4444440000  0.0266670000  1  1  1
0.6316120000  0.5119090000  0.0333330000  1  1  1
0.6316120000  0.5119090000  0.0466670000  1  1  1
0.6429260000  0.4444440000  0.0533330000  1  1  1
0.6429260000  0.4444440000  0.0666670000  1  1  1
0.6316120000  0.5119090000  0.0733330000  1  1  1
0.6316120000  0.5119090000  0.0866670000  1  1  1
0.6429260000  0.4449400000  0.0933260000  1  1  1
0.6429260000  0.4449200000  0.1064910000  1  1  1
0.6319130000  0.5110280000  0.1132860000  1  1  1
0.6327190000  0.5086010000  0.1266420000  1  1  1
0.6428710000  0.4396920000  0.1327390000  1  1  1
0.6427100000  0.4350060000  0.1460990000  1  1  1
0.6365790000  0.4952510000  0.1526450000  1  1  1
0.6358120000  0.4981890000  0.1654500000  1  1  1
0.6427840000  0.4367850000  0.1726690000  1  1  1
0.6429070000  0.4416660000  0.1864720000  1  1  1
0.6320380000  0.5106590000  0.1925120000  1  1  1
0.6309630000  0.5137670000  0.2067370000  1  1  1
0.6429160000  0.4464810000  0.2145490000  1  1  1
0.6424080000  0.4590590000  0.2290990000  1  1  1
0.6276520000  0.5224860000  0.2334190000  1  1  1
0.6275500000  0.5227390000  0.2464360000  1  1  1
0.6424860000  0.4579100000  0.2510780000  1  1  1
0.6429200000  0.4460730000  0.2655130000  1  1  1
0.6313630000  0.5126300000  0.2728790000  1  1  1
0.6317900000  0.5113890000  0.2865020000  1  1  1
0.6429260000  0.4445540000  0.2930150000  1  1  1
0.6429260000  0.4444320000  0.3066570000  1  1  1
0.6316120000  0.5119090000  0.3133330000  1  1  1
0.6316120000  0.5119090000  0.3266670000  1  1  1
0.6429260000  0.4441870000  0.3333270000  1  1  1
0.6429240000  0.4434990000  0.3468410000  1  1  1
0.6322190000  0.5101190000  0.3535090000  1  1  1
0.6323910000  0.5096010000  0.3669010000  1  1  1
0.6427750000  0.4365510000  0.3741430000  1  1  1
0.6428700000  0.4396300000  0.3874780000  1  1  1
0.6319400000  0.5109490000  0.3936170000  1  1  1
0.6312550000  0.5129380000  0.4071050000  1  1  1
0.6429130000  0.4467430000  0.4139960000  1  1  1
0.6429230000  0.4455310000  0.4269960000  1  1  1
0.6317130000  0.5116140000  0.4336190000  1  1  1
0.6318740000  0.5111440000  0.4465620000  1  1  1
0.6429110000  0.4419410000  0.4533270000  1  1  1
0.6429190000  0.4427880000  0.4665690000  1  1  1
0.6316120000  0.5119090000  0.4733330000  1  1  1
0.6315850000  0.5119870000  0.4867060000  1  1  1
0.6429260000  0.4447950000  0.4933710000  1  1  1
0.6429260000  0.4448050000  0.5069730000  1  1  1
0.6316560000  0.5117820000  0.5137380000  1  1  1
0.6316990000  0.5116560000  0.5281670000  1  1  1
0.6429230000  0.4433250000  0.5344900000  1  1  1
0.6424570000  0.4305370000  0.5489790000  1  1  1
0.6186060000  0.5419200000  0.5598220000  1  1  1
0.6399160000  0.4795620000  0.5598200000  1  1  1
0.6424070000  0.4298250000  0.5708400000  1  1  1
0.6429120000  0.4420270000  0.5852030000  1  1  1
0.6317420000  0.5115290000  0.5915210000  1  1  1
0.6315340000  0.5121360000  0.6059450000  1  1  1
0.6429260000  0.4443840000  0.6129330000  1  1  1
0.6429260000  0.4447750000  0.6266320000  1  1  1
0.6316190000  0.5118890000  0.6332820000  1  1  1
0.6316120000  0.5119090000  0.6466670000  1  1  1
0.6429260000  0.4446980000  0.6533090000  1  1  1
0.6429260000  0.4447550000  0.6665790000  1  1  1
0.6316120000  0.5119090000  0.6733330000  1  1  1
0.6316490000  0.5118020000  0.6865150000  1  1  1
0.6429260000  0.4449030000  0.6929090000  1  1  1
0.6429180000  0.4426710000  0.7063350000  1  1  1
0.6317630000  0.5114700000  0.7133600000  1  1  1
0.6320220000  0.5107070000  0.7264840000  1  1  1
0.6429160000  0.4423900000  0.7330450000  1  1  1
0.6429210000  0.4429800000  0.7465660000  1  1  1
0.6316560000  0.5117810000  0.7533200000  1  1  1
0.6316120000  0.5119090000  0.7666670000  1  1  1
0.6429260000  0.4443470000  0.7733030000  1  1  1
0.6429260000  0.4443070000  0.7866440000  1  1  1
0.6316120000  0.5119090000  0.7933330000  1  1  1
0.6317190000  0.5115980000  0.8066830000  1  1  1
0.6429130000  0.4421530000  0.8134350000  1  1  1
0.6429060000  0.4415920000  0.8269340000  1  1  1
0.6319990000  0.5107740000  0.8335090000  1  1  1
0.6317820000  0.5114150000  0.8466170000  1  1  1
0.6429200000  0.4428700000  0.8536770000  1  1  1
0.6429250000  0.4449820000  0.8669280000  1  1  1
0.6315600000  0.5120600000  0.8733520000  1  1  1
0.6314260000  0.5124470000  0.8866630000  1  1  1
0.6429250000  0.4452370000  0.8933570000  1  1  1
0.6429260000  0.4449010000  0.9066840000  1  1  1
0.6316120000  0.5119090000  0.9133330000  1  1  1
0.6316120000  0.5119090000  0.9266670000  1  1  1
0.6429260000  0.4444440000  0.9333330000  1  1  1
0.6429260000  0.4444440000  0.9466670000  1  1  1
0.6316120000  0.5119090000  0.9533330000  1  1  1
0.6316120000  0.5119090000  0.9666670000  1  1  1
0.6429260000  0.4444440000  0.9733330000  1  1  1
0.6429260000  0.4444440000  0.9866670000  1  1  1
0.6316120000  0.5119090000  0.9933330000  1  1  1
0.5476380000  0.6210680000  0.0066670000  1  1  1
0.5987780000  0.5727690000  0.0133330000  1  1  1
0.5987780000  0.5727690000  0.0266670000  1  1  1
0.5476380000  0.6210680000  0.0333330000  1  1  1
0.5476380000  0.6210680000  0.0466670000  1  1  1
0.5987780000  0.5727690000  0.0533330000  1  1  1
0.5987780000  0.5727690000  0.0666670000  1  1  1
0.5476380000  0.6210680000  0.0733330000  1  1  1
0.5476380000  0.6210680000  0.0866670000  1  1  1
0.5988600000  0.5726630000  0.0933440000  1  1  1
0.5993640000  0.5720050000  0.1068580000  1  1  1
0.5499700000  0.6194470000  0.1137420000  1  1  1
0.5535530000  0.6168710000  0.1278780000  1  1  1
0.6039640000  0.5657420000  0.1337240000  1  1  1
0.6094110000  0.5576660000  0.1471450000  1  1  1
0.5090970000  0.6424670000  0.1518300000  1  1  1
0.5747540000  0.5992590000  0.1558210000  1  1  1
0.6062150000  0.5624990000  0.1693880000  1  1  1
0.5978690000  0.5739430000  0.1842660000  1  1  1
0.5467430000  0.6216790000  0.1909930000  1  1  1
0.5487400000  0.6203070000  0.2060830000  1  1  1
0.5982390000  0.5734670000  0.2128140000  1  1  1
0.5966730000  0.5754620000  0.2267650000  1  1  1
0.5459590000  0.6222090000  0.2331290000  1  1  1
0.5457270000  0.6223660000  0.2468030000  1  1  1
0.5962270000  0.5760210000  0.2530940000  1  1  1
0.5976820000  0.5741820000  0.2665160000  1  1  1
0.5473870000  0.6212400000  0.2732790000  1  1  1
0.5476380000  0.6210680000  0.2866670000  1  1  1
0.5987960000  0.5727470000  0.2933070000  1  1  1
0.5987780000  0.5727690000  0.3066670000  1  1  1
0.5476380000  0.6210680000  0.3133330000  1  1  1
0.5476380000  0.6210680000  0.3266670000  1  1  1
0.5987780000  0.5727690000  0.3333330000  1  1  1
0.5989130000  0.5725930000  0.3467460000  1  1  1
0.5480670000  0.6207730000  0.3533890000  1  1  1
0.5478830000  0.6209000000  0.3666800000  1  1  1
0.5998210000  0.5714030000  0.3735250000  1  1  1
0.5995040000  0.5718200000  0.3866700000  1  1  1
0.5476380000  0.6210680000  0.3933330000  1  1  1
0.5475370000  0.6211370000  0.4066680000  1  1  1
0.5985500000  0.5730650000  0.4134590000  1  1  1
0.5983490000  0.5733250000  0.4268310000  1  1  1
0.5476420000  0.6210650000  0.4333680000  1  1  1
0.5476590000  0.6210540000  0.4466470000  1  1  1
0.5988040000  0.5727360000  0.4533080000  1  1  1
0.5987780000  0.5727690000  0.4666670000  1  1  1
0.5475540000  0.6211260000  0.4733410000  1  1  1
0.5474820000  0.6211750000  0.4866690000  1  1  1
0.5987660000  0.5727850000  0.4933740000  1  1  1
0.5986220000  0.5729730000  0.5069360000  1  1  1
0.5479870000  0.6208290000  0.5134340000  1  1  1
0.5468440000  0.6216110000  0.5270980000  1  1  1
0.5976730000  0.5741940000  0.5345730000  1  1  1
0.5897660000  0.5837340000  0.5489320000  1  1  1
0.5367410000  0.6281060000  0.5535510000  1  1  1
0.5368330000  0.6280500000  0.5665630000  1  1  1
0.5899170000  0.5835620000  0.5709930000  1  1  1
0.5982330000  0.5734740000  0.5851780000  1  1  1
0.5470090000  0.6214980000  0.5927330000  1  1  1
0.5484400000  0.6205150000  0.6063230000  1  1  1
0.5982790000  0.5734150000  0.6128050000  1  1  1
0.5987010000  0.5728690000  0.6266340000  1  1  1
0.5476380000  0.6210680000  0.6333330000  1  1  1
0.5476380000  0.6210680000  0.6466670000  1  1  1
0.5987780000  0.5727690000  0.6533330000  1  1  1
0.5987780000  0.5727690000  0.6666670000  1  1  1
0.5476380000  0.6210680000  0.6733330000  1  1  1
0.5476380000  0.6210680000  0.6866670000  1  1  1
0.5987780000  0.5727690000  0.6933330000  1  1  1
0.5987680000  0.5727820000  0.7066920000  1  1  1
0.5476550000  0.6210560000  0.7133530000  1  1  1
0.5476380000  0.6210680000  0.7266670000  1  1  1
0.5988940000  0.5726180000  0.7333100000  1  1  1
0.5987780000  0.5727690000  0.7466670000  1  1  1
0.5476380000  0.6210680000  0.7533330000  1  1  1
0.5476380000  0.6210680000  0.7666670000  1  1  1
0.5987780000  0.5727690000  0.7733330000  1  1  1
0.5987780000  0.5727690000  0.7866670000  1  1  1
0.5476380000  0.6210680000  0.7933330000  1  1  1
0.5476380000  0.6210680000  0.8066670000  1  1  1
0.5989900000  0.5724930000  0.8133650000  1  1  1
0.5988050000  0.5727340000  0.8266750000  1  1  1
0.5476380000  0.6210680000  0.8333330000  1  1  1
0.5478800000  0.6209020000  0.8465990000  1  1  1
0.5988200000  0.5727140000  0.8532390000  1  1  1
0.5986620000  0.5729200000  0.8665740000  1  1  1
0.5474450000  0.6212010000  0.8732780000  1  1  1
0.5475910000  0.6211000000  0.8866660000  1  1  1
0.5986390000  0.5729500000  0.8933360000  1  1  1
0.5987780000  0.5727690000  0.9066670000  1  1  1
0.5476380000  0.6210680000  0.9133330000  1  1  1
0.5476380000  0.6210680000  0.9266670000  1  1  1
0.5987780000  0.5727690000  0.9333330000  1  1  1
0.5987780000  0.5727690000  0.9466670000  1  1  1
0.5476380000  0.6210680000  0.9533330000  1  1  1
0.5476380000  0.6210680000  0.9666670000  1  1  1
0.5987780000  0.5727690000  0.9733330000  1  1  1
0.5987780000  0.5727690000  0.9866670000  1  1  1
0.5476380000  0.6210680000  0.9933330000  1  1  1
0.4117650000  0.6627640000  0.0066670000  1  1  1
0.4831970000  0.6520780000  0.0133330000  1  1  1
0.4831970000  0.6520780000  0.0266670000  1  1  1
0.4117650000  0.6627640000  0.0333330000  1  1  1
0.4117650000  0.6627640000  0.0466670000  1  1  1
0.4831970000  0.6520780000  0.0533330000  1  1  1
0.4831970000  0.6520780000  0.0666670000  1  1  1
0.4117650000  0.6627640000  0.0733330000  1  1  1
0.4119580000  0.6627630000  0.0867000000  1  1  1
0.4838180000  0.6518870000  0.0933630000  1  1  1
0.4846970000  0.6516130000  0.1071700000  1  1  1
0.4127550000  0.6627620000  0.1140760000  1  1  1
0.4132650000  0.6627590000  0.1282200000  1  1  1
0.4948480000  0.6481750000  0.1354580000  1  1  1
0.4528470000  0.6592880000  0.1595590000  1  1  1
0.3778220000  0.6603970000  0.1565570000  1  1  1
0.3345970000  0.6502400000  0.1668770000  1  1  1
0.4436820000  0.6606720000  0.1738880000  1  1  1
0.4805450000  0.6528760000  0.1862550000  1  1  1
0.4141360000  0.6627520000  0.1945230000  1  1  1
0.4144020000  0.6627490000  0.2070800000  1  1  1
0.4824240000  0.6523140000  0.2132670000  1  1  1
0.4826450000  0.6522470000  0.2266520000  1  1  1
0.4111970000  0.6627630000  0.2333930000  1  1  1
0.4113850000  0.6627630000  0.2466740000  1  1  1
0.4828630000  0.6521810000  0.2533680000  1  1  1
0.4831610000  0.6520890000  0.2666640000  1  1  1
0.4117650000  0.6627640000  0.2733330000  1  1  1
0.4117650000  0.6627640000  0.2866670000  1  1  1
0.4831970000  0.6520780000  0.2933330000  1  1  1
0.4831970000  0.6520780000  0.3066670000  1  1  1
0.4117650000  0.6627640000  0.3133330000  1  1  1
0.4117650000  0.6627640000  0.3266670000  1  1  1
0.4831970000  0.6520780000  0.3333330000  1  1  1
0.4832520000  0.6520610000  0.3466680000  1  1  1
0.4117650000  0.6627640000  0.3533330000  1  1  1
0.4117880000  0.6627640000  0.3666590000  1  1  1
0.4831970000  0.6520780000  0.3733330000  1  1  1
0.4833600000  0.6520280000  0.3866600000  1  1  1
0.4123970000  0.6627630000  0.3933110000  1  1  1
0.4122940000  0.6627630000  0.4066700000  1  1  1
0.4831690000  0.6520870000  0.4132850000  1  1  1
0.4831970000  0.6520780000  0.4266670000  1  1  1
0.4119130000  0.6627630000  0.4332980000  1  1  1
0.4116910000  0.6627630000  0.4466390000  1  1  1
0.4831970000  0.6520780000  0.4533330000  1  1  1
0.4829880000  0.6521420000  0.4666700000  1  1  1
0.4100750000  0.6627580000  0.4733840000  1  1  1
0.4099100000  0.6627570000  0.4864660000  1  1  1
0.4832200000  0.6520710000  0.4933120000  1  1  1
0.4830710000  0.6521170000  0.5066430000  1  1  1
0.4120640000  0.6627630000  0.5132410000  1  1  1
0.4119040000  0.6627630000  0.5265930000  1  1  1
0.4816220000  0.6525560000  0.5334100000  1  1  1
0.4791760000  0.6532740000  0.5469150000  1  1  1
0.4093100000  0.6627510000  0.5529530000  1  1  1
0.4072850000  0.6627230000  0.5665880000  1  1  1
0.4777610000  0.6536770000  0.5732130000  1  1  1
0.4802210000  0.6529710000  0.5863490000  1  1  1
0.4088490000  0.6627460000  0.5931720000  1  1  1
0.4101110000  0.6627580000  0.6065400000  1  1  1
0.4833050000  0.6520450000  0.6131520000  1  1  1
0.4834370000  0.6520050000  0.6266170000  1  1  1
0.4117130000  0.6627640000  0.6333010000  1  1  1
0.4117270000  0.6627640000  0.6466690000  1  1  1
0.4831970000  0.6520780000  0.6533330000  1  1  1
0.4831970000  0.6520780000  0.6666670000  1  1  1
0.4117650000  0.6627640000  0.6733330000  1  1  1
0.4117650000  0.6627640000  0.6866670000  1  1  1
0.4831970000  0.6520780000  0.6933330000  1  1  1
0.4831970000  0.6520780000  0.7066670000  1  1  1
0.4117650000  0.6627640000  0.7133330000  1  1  1
0.4117650000  0.6627640000  0.7266670000  1  1  1
0.4831970000  0.6520780000  0.7333330000  1  1  1
0.4831970000  0.6520780000  0.7466670000  1  1  1
0.4117650000  0.6627640000  0.7533330000  1  1  1
0.4117650000  0.6627640000  0.7666670000  1  1  1
0.4831970000  0.6520780000  0.7733330000  1  1  1
0.4831970000  0.6520780000  0.7866670000  1  1  1
0.4117650000  0.6627640000  0.7933330000  1  1  1
0.4117650000  0.6627640000  0.8066670000  1  1  1
0.4831970000  0.6520780000  0.8133330000  1  1  1
0.4831970000  0.6520780000  0.8266670000  1  1  1
0.4117650000  0.6627640000  0.8333330000  1  1  1
0.4117650000  0.6627640000  0.8466670000  1  1  1
0.4831970000  0.6520780000  0.8533330000  1  1  1
0.4831970000  0.6520780000  0.8666670000  1  1  1
0.4117650000  0.6627640000  0.8733330000  1  1  1
0.4117650000  0.6627640000  0.8866670000  1  1  1
0.4831970000  0.6520780000  0.8933330000  1  1  1
0.4831970000  0.6520780000  0.9066670000  1  1  1
0.4117650000  0.6627640000  0.9133330000  1  1  1
0.4117650000  0.6627640000  0.9266670000  1  1  1
0.4831970000  0.6520780000  0.9333330000  1  1  1
0.4831970000  0.6520780000  0.9466670000  1  1  1
0.4117650000  0.6627640000  0.9533330000  1  1  1
0.4117650000  0.6627640000  0.9666670000  1  1  1
0.4831970000  0.6520780000  0.9733330000  1  1  1
0.4831970000  0.6520780000  0.9866670000  1  1  1
0.4117650000  0.6627640000  0.9933330000  1  1  1
0.2758910000  0.6210680000  0.0066670000  1  1  1
0.3403320000  0.6520780000  0.0133330000  1  1  1
0.3403320000  0.6520780000  0.0266670000  1  1  1
0.2758910000  0.6210680000  0.0333330000  1  1  1
0.2758910000  0.6210680000  0.0466670000  1  1  1
0.3403320000  0.6520780000  0.0533330000  1  1  1
0.3403320000  0.6520780000  0.0666670000  1  1  1
0.2758510000  0.6210410000  0.0733470000  1  1  1
0.2755920000  0.6208620000  0.0868310000  1  1  1
0.3392030000  0.6517290000  0.0935110000  1  1  1
0.3385690000  0.6515300000  0.1071240000  1  1  1
0.2697410000  0.6166980000  0.1140960000  1  1  1
0.2706790000  0.6173850000  0.1271400000  1  1  1
0.3408980000  0.6522510000  0.1343410000  1  1  1
0.3323830000  0.6494870000  0.1468770000  1  1  1
0.2680260000  0.6154250000  0.1524370000  1  1  1
0.2727350000  0.6188640000  0.1644600000  1  1  1
0.3683510000  0.6588790000  0.1759710000  1  1  1
0.3492950000  0.6546400000  0.1877730000  1  1  1
0.2804880000  0.6241420000  0.1931760000  1  1  1
0.2776150000  0.6222390000  0.2068240000  1  1  1
0.3409990000  0.6522820000  0.2137130000  1  1  1
0.3399380000  0.6519570000  0.2267640000  1  1  1
0.2759590000  0.6211150000  0.2333450000  1  1  1
0.2758910000  0.6210680000  0.2466670000  1  1  1
0.3403190000  0.6520740000  0.2533350000  1  1  1
0.3403320000  0.6520780000  0.2666670000  1  1  1
0.2758910000  0.6210680000  0.2733330000  1  1  1
0.2758910000  0.6210680000  0.2866670000  1  1  1
0.3403320000  0.6520780000  0.2933330000  1  1  1
0.3403320000  0.6520780000  0.3066670000  1  1  1
0.2758910000  0.6210680000  0.3133330000  1  1  1
0.2758910000  0.6210680000  0.3266670000  1  1  1
0.3403320000  0.6520780000  0.3333330000  1  1  1
0.3403320000  0.6520780000  0.3466670000  1  1  1
0.2758910000  0.6210680000  0.3533330000  1  1  1
0.2762150000  0.6212900000  0.3666960000  1  1  1
0.3406440000  0.6521740000  0.3733160000  1  1  1
0.3408910000  0.6522490000  0.3866210000  1  1  1
0.2783460000  0.6227290000  0.3930630000  1  1  1
0.2782890000  0.6226910000  0.4067120000  1  1  1
0.3417820000  0.6525180000  0.4132950000  1  1  1
0.3415320000  0.6524430000  0.4266470000  1  1  1
0.2786480000  0.6229310000  0.4329310000  1  1  1
0.2768650000  0.6217330000  0.4460250000  1  1  1
0.3400520000  0.6519920000  0.4531270000  1  1  1
0.3379240000  0.6513260000  0.4664180000  1  1  1
0.2696160000  0.6166060000  0.4726270000  1  1  1
0.2678480000  0.6152910000  0.4859120000  1  1  1
0.3372540000  0.6511110000  0.4930840000  1  1  1
0.3380800000  0.6513750000  0.5064160000  1  1  1
0.2758290000  0.6210260000  0.5130240000  1  1  1
0.2769300000  0.6217770000  0.5261580000  1  1  1
0.3427120000  0.6527950000  0.5329090000  1  1  1
0.3416840000  0.6524890000  0.5460460000  1  1  1
0.2799860000  0.6238140000  0.5516280000  1  1  1
0.2713260000  0.6178540000  0.5635890000  1  1  1
0.3335530000  0.6498880000  0.5726240000  1  1  1
0.3311080000  0.6490430000  0.5859770000  1  1  1
0.2689640000  0.6161240000  0.5929410000  1  1  1
0.2732700000  0.6192430000  0.6065750000  1  1  1
0.3403830000  0.6520940000  0.6132670000  1  1  1
0.3406510000  0.6521760000  0.6266390000  1  1  1
0.2758910000  0.6210680000  0.6333330000  1  1  1
0.2758910000  0.6210680000  0.6466670000  1  1  1
0.3403320000  0.6520780000  0.6533330000  1  1  1
0.3403320000  0.6520780000  0.6666670000  1  1  1
0.2758910000  0.6210680000  0.6733330000  1  1  1
0.2758910000  0.6210680000  0.6866670000  1  1  1
0.3403320000  0.6520780000  0.6933330000  1  1  1
0.3403320000  0.6520780000  0.7066670000  1  1  1
0.2758910000  0.6210680000  0.7133330000  1  1  1
0.2758910000  0.6210680000  0.7266670000  1  1  1
0.3403320000  0.6520780000  0.7333330000  1  1  1
0.3403320000  0.6520780000  0.7466670000  1  1  1
0.2758910000  0.6210680000  0.7533330000  1  1  1
0.2758910000  0.6210680000  0.7666670000  1  1  1
0.3403320000  0.6520780000  0.7733330000  1  1  1
0.3403320000  0.6520780000  0.7866670000  1  1  1
0.2758910000  0.6210680000  0.7933330000  1  1  1
0.2758910000  0.6210680000  0.8066670000  1  1  1
0.3403320000  0.6520780000  0.8133330000  1  1  1
0.3403320000  0.6520780000  0.8266670000  1  1  1
0.2758910000  0.6210680000  0.8333330000  1  1  1
0.2758910000  0.6210680000  0.8466670000  1  1  1
0.3403320000  0.6520780000  0.8533330000  1  1  1
0.3403320000  0.6520780000  0.8666670000  1  1  1
0.2758910000  0.6210680000  0.8733330000  1  1  1
0.2758910000  0.6210680000  0.8866670000  1  1  1
0.3403320000  0.6520780000  0.8933330000  1  1  1
0.3403320000  0.6520780000  0.9066670000  1  1  1
0.2758910000  0.6210680000  0.9133330000  1  1  1
0.2758910000  0.6210680000  0.9266670000  1  1  1
0.3403320000  0.6520780000  0.9333330000  1  1  1
0.3403320000  0.6520780000  0.9466670000  1  1  1
0.2758910000  0.6210680000  0.9533330000  1  1  1
0.2758910000  0.6210680000  0.9666670000  1  1  1
0.3403320000  0.6520780000  0.9733330000  1  1  1
0.3403320000  0.6520780000  0.9866670000  1  1  1
0.2758910000  0.6210680000  0.9933330000  1  1  1
0.1919170000  0.5119090000  0.0066670000  1  1  1
0.2247510000  0.5727690000  0.0133330000  1  1  1
0.2247510000  0.5727690000  0.0266670000  1  1  1
0.1919170000  0.5119090000  0.0333330000  1  1  1
0.1919170000  0.5119090000  0.0466670000  1  1  1
0.2247510000  0.5727690000  0.0533330000  1  1  1
0.2247510000  0.5727690000  0.0666670000  1  1  1
0.1919170000  0.5119090000  0.0733330000  1  1  1
0.1916350000  0.5110830000  0.0864120000  1  1  1
0.2235180000  0.5711500000  0.0933690000  1  1  1
0.2207280000  0.5673690000  0.1068690000  1  1  1
0.1863890000  0.4929830000  0.1122700000  1  1  1
0.1812820000  0.4611600000  0.1251530000  1  1  1
0.2198360000  0.5661240000  0.1359990000  1  1  1
0.2254620000  0.5736870000  0.1473870000  1  1  1
0.1933300000  0.5158860000  0.1542550000  1  1  1
0.1929680000  0.5148900000  0.1666330000  1  1  1
0.2262920000  0.5747490000  0.1725240000  1  1  1
0.2282320000  0.5771760000  0.1860570000  1  1  1
0.1936500000  0.5167530000  0.1928740000  1  1  1
0.1932920000  0.5157810000  0.2066000000  1  1  1
0.2257510000  0.5740580000  0.2132880000  1  1  1
0.2251380000  0.5732700000  0.2266990000  1  1  1
0.1919060000  0.5118770000  0.2333140000  1  1  1
0.1918490000  0.5117110000  0.2466590000  1  1  1
0.2247510000  0.5727690000  0.2533330000  1  1  1
0.2247510000  0.5727690000  0.2666670000  1  1  1
0.1919170000  0.5119090000  0.2733330000  1  1  1
0.1919170000  0.5119090000  0.2866670000  1  1  1
0.2247510000  0.5727690000  0.2933330000  1  1  1
0.2247510000  0.5727690000  0.3066670000  1  1  1
0.1919170000  0.5119090000  0.3133330000  1  1  1
0.1918600000  0.5117430000  0.3267200000  1  1  1
0.2247510000  0.5727690000  0.3333330000  1  1  1
0.2249740000  0.5730590000  0.3467120000  1  1  1
0.1918060000  0.5115830000  0.3535420000  1  1  1
0.1923570000  0.5131740000  0.3670820000  1  1  1
0.2258590000  0.5741970000  0.3733990000  1  1  1
0.2273230000  0.5760470000  0.3866350000  1  1  1
0.1959270000  0.5226100000  0.3932970000  1  1  1
0.1960650000  0.5229490000  0.4062760000  1  1  1
0.2283630000  0.5773370000  0.4129690000  1  1  1
0.2269930000  0.5756330000  0.4259690000  1  1  1
0.1932530000  0.5156750000  0.4322630000  1  1  1
0.1939520000  0.5175600000  0.4448870000  1  1  1
0.2276000000  0.5763930000  0.4515990000  1  1  1
0.2210540000  0.5678210000  0.4636030000  1  1  1
0.1868850000  0.4949950000  0.4652040000  1  1  1
0.1865780000  0.4937600000  0.4877190000  1  1  1
0.2200040000  0.5663600000  0.4929650000  1  1  1
0.2233430000  0.5709180000  0.5066030000  1  1  1
0.1916950000  0.5112610000  0.5136990000  1  1  1
0.1926070000  0.5138820000  0.5266940000  1  1  1
0.2269270000  0.5755500000  0.5329350000  1  1  1
0.2291940000  0.5783550000  0.5451550000  1  1  1
0.1989080000  0.5295880000  0.5525660000  1  1  1
0.1985610000  0.5288120000  0.5749080000  1  1  1
0.2142970000  0.5579430000  0.5653430000  1  1  1
0.2135390000  0.5567590000  0.5876070000  1  1  1
0.1897220000  0.5051600000  0.5950220000  1  1  1
0.1908200000  0.5086320000  0.6072150000  1  1  1
0.2236350000  0.5713060000  0.6135210000  1  1  1
0.2245450000  0.5725000000  0.6267110000  1  1  1
0.1919170000  0.5119090000  0.6333330000  1  1  1
0.1919170000  0.5119090000  0.6466670000  1  1  1
0.2247510000  0.5727690000  0.6533330000  1  1  1
0.2247510000  0.5727690000  0.6666670000  1  1  1
0.1919170000  0.5119090000  0.6733330000  1  1  1
0.1919170000  0.5119090000  0.6866670000  1  1  1
0.2247510000  0.5727690000  0.6933330000  1  1  1
0.2247510000  0.5727690000  0.7066670000  1  1  1
0.1919170000  0.5119090000  0.7133330000  1  1  1
0.1919170000  0.5119090000  0.7266670000  1  1  1
0.2247510000  0.5727690000  0.7333330000  1  1  1
0.2247510000  0.5727690000  0.7466670000  1  1  1
0.1919170000  0.5119090000  0.7533330000  1  1  1
0.1919170000  0.5119090000  0.7666670000  1  1  1
0.2247510000  0.5727690000  0.7733330000  1  1  1
0.2247510000  0.5727690000  0.7866670000  1  1  1
0.1919170000  0.5119090000  0.7933330000  1  1  1
0.1919170000  0.5119090000  0.8066670000  1  1  1
0.2247510000  0.5727690000  0.8133330000  1  1  1
0.2247510000  0.5727690000  0.8266670000  1  1  1
0.1919170000  0.5119090000  0.8333330000  1  1  1
0.1919170000  0.5119090000  0.8466670000  1  1  1
0.2247510000  0.5727690000  0.8533330000  1  1  1
0.2247510000  0.5727690000  0.8666670000  1  1  1
0.1919170000  0.5119090000  0.8733330000  1  1  1
0.1919170000  0.5119090000  0.8866670000  1  1  1
0.2247510000  0.5727690000  0.8933330000  1  1  1
0.2247510000  0.5727690000  0.9066670000  1  1  1
0.1919170000  0.5119090000  0.9133330000  1  1  1
0.1919170000  0.5119090000  0.9266670000  1  1  1
0.2247510000  0.5727690000  0.9333330000  1  1  1
0.2247510000  0.5727690000  0.9466670000  1  1  1
0.1919170000  0.5119090000  0.9533330000  1  1  1
0.1919170000  0.5119090000  0.9666670000  1  1  1
0.2247510000  0.5727690000  0.9733330000  1  1  1
0.2247510000  0.5727690000  0.9866670000  1  1  1
0.1919170000  0.5119090000  0.9933330000  1  1  1
0.1919170000  0.3769800000  0.0066670000  1  1  1
0.1806030000  0.4444440000  0.0133330000  1  1  1
0.1806030000  0.4444440000  0.0266670000  1  1  1
0.1919170000  0.3769800000  0.0333330000  1  1  1
0.1919170000  0.3769800000  0.0466670000  1  1  1
0.1806030000  0.4444440000  0.0533330000  1  1  1
0.1806040000  0.4440070000  0.0665710000  1  1  1
0.1921960000  0.3761740000  0.0732120000  1  1  1
0.1922420000  0.3760440000  0.0861370000  1  1  1
0.1806180000  0.4419850000  0.0927510000  1  1  1
0.1807010000  0.4380890000  0.1049670000  1  1  1
0.1941330000  0.3708490000  0.1115660000  1  1  1
0.1907330000  0.3805260000  0.1235960000  1  1  1
0.1862460000  0.4923870000  0.1342720000  1  1  1
0.1813100000  0.4615030000  0.1471890000  1  1  1
0.1899390000  0.3830280000  0.1530370000  1  1  1
0.1905440000  0.3811110000  0.1669490000  1  1  1
0.1806640000  0.4494380000  0.1733700000  1  1  1
0.1807180000  0.4513270000  0.1864900000  1  1  1
0.1881400000  0.3891530000  0.1932460000  1  1  1
0.1881680000  0.3890520000  0.2062250000  1  1  1
0.1806610000  0.4493080000  0.2128880000  1  1  1
0.1806160000  0.4467280000  0.2265020000  1  1  1
0.1917680000  0.3774160000  0.2328170000  1  1  1
0.1921770000  0.3762290000  0.2465050000  1  1  1
0.1806030000  0.4443270000  0.2533300000  1  1  1
0.1806030000  0.4443480000  0.2666630000  1  1  1
0.1919170000  0.3769800000  0.2733330000  1  1  1
0.1919170000  0.3769800000  0.2866670000  1  1  1
0.1806030000  0.4444440000  0.2933330000  1  1  1
0.1806030000  0.4444440000  0.3066670000  1  1  1
0.1919160000  0.3769830000  0.3133400000  1  1  1
0.1919080000  0.3770070000  0.3267060000  1  1  1
0.1806040000  0.4447870000  0.3333840000  1  1  1
0.1806050000  0.4451520000  0.3470980000  1  1  1
0.1918600000  0.3771480000  0.3539500000  1  1  1
0.1918800000  0.3770870000  0.3683390000  1  1  1
0.1806090000  0.4459640000  0.3746650000  1  1  1
0.1810520000  0.4580410000  0.3887930000  1  1  1
0.2069620000  0.3432010000  0.4000580000  1  1  1
0.1838160000  0.4081750000  0.3999290000  1  1  1
0.1810350000  0.4577780000  0.4108110000  1  1  1
0.1806160000  0.4467170000  0.4249630000  1  1  1
0.1915270000  0.3781250000  0.4316950000  1  1  1
0.1897150000  0.3837520000  0.4465570000  1  1  1
0.1814470000  0.4630810000  0.4520440000  1  1  1
0.1813620000  0.4621170000  0.4749450000  1  1  1
0.1899860000  0.3828770000  0.4766970000  1  1  1
0.1934130000  0.3727780000  0.4887680000  1  1  1
0.1807090000  0.4378590000  0.4952420000  1  1  1
0.1806180000  0.4419970000  0.5074960000  1  1  1
0.1919500000  0.3768860000  0.5141160000  1  1  1
0.1916830000  0.3776650000  0.5271480000  1  1  1
0.1806330000  0.4479370000  0.5336920000  1  1  1
0.1807570000  0.4524150000  0.5472190000  1  1  1
0.1893170000  0.3850680000  0.5542110000  1  1  1
0.1900240000  0.3827550000  0.5675520000  1  1  1
0.1806580000  0.4491900000  0.5765940000  1  1  1
0.1806840000  0.4386730000  0.5884750000  1  1  1
0.1926930000  0.3747650000  0.5940400000  1  1  1
0.1928640000  0.3742880000  0.6068880000  1  1  1
0.1806050000  0.4436540000  0.6137240000  1  1  1
0.1806040000  0.4439680000  0.6266720000  1  1  1
0.1919170000  0.3769800000  0.6333330000  1  1  1
0.1919170000  0.3769800000  0.6466670000  1  1  1
0.1806030000  0.4444440000  0.6533330000  1  1  1
0.1806030000  0.4444440000  0.6666670000  1  1  1
0.1919510000  0.3768820000  0.6733510000  1  1  1
0.1919700000  0.3768280000  0.6866520000  1  1  1
0.1806030000  0.4444440000  0.6933330000  1  1  1
0.1806030000  0.4444440000  0.7066670000  1  1  1
0.1919240000  0.3769610000  0.7133220000  1  1  1
0.1919240000  0.3769610000  0.7266060000  1  1  1
0.1806030000  0.4444440000  0.7333330000  1  1  1
0.1806030000  0.4444440000  0.7466670000  1  1  1
0.1918610000  0.3771430000  0.7532970000  1  1  1
0.1919170000  0.3769800000  0.7666670000  1  1  1
0.1806030000  0.4444440000  0.7733330000  1  1  1
0.1806030000  0.4444440000  0.7866670000  1  1  1
0.1919170000  0.3769800000  0.7933330000  1  1  1
0.1919170000  0.3769800000  0.8066670000  1  1  1
0.1806030000  0.4444440000  0.8133330000  1  1  1
0.1806030000  0.4444440000  0.8266670000  1  1  1
0.1919170000  0.3769800000  0.8333330000  1  1  1
0.1918820000  0.3770830000  0.8466900000  1  1  1
0.1806030000  0.4444440000  0.8533330000  1  1  1
0.1806030000  0.4444440000  0.8666670000  1  1  1
0.1919890000  0.3767730000  0.8734110000  1  1  1
0.1919170000  0.3769800000  0.8866670000  1  1  1
0.1806030000  0.4444440000  0.8933330000  1  1  1
0.1806030000  0.4444440000  0.9066670000  1  1  1
0.1919170000  0.3769800000  0.9133330000  1  1  1
0.1919170000  0.3769800000  0.9266670000  1  1  1