%BLOCK LATTICE_CART
   2.828739581100000   0.000000000000000   0.000000000000000
   1.414369790550000   2.449760337923151   0.000000000000000
   0.000000000000003   0.000000000000002  46.259118122932058
%END BLOCK LATTICE_CART
%BLOCK POSITIONS_FRAC
    Al   0.000000000000000   0.000000000000000   0.999931958869672
    Al   0.333333333300000   0.333333333300000   0.049887472255329
    Al   0.666666666700000   0.666666666700000   0.099828031632143
    Al   0.000000000000000   0.000000000000000   0.149766611359376
    Al   0.333333333300000   0.333333333300000   0.199637359962512
    Al   0.733333333300000   0.733333333300000   0.250362573831419
    Al   0.066666666700000   0.066666666700000   0.300232486105530
    Al   0.400000000000000   0.400000000000000   0.350172506307262
    Al   0.733333333300000   0.733333333300000   0.400105911140509
    Al   0.066666666700000   0.066666666700000   0.450000028145369
    Al   0.733333333300000   0.733333333300000   0.499894219234558
    Al   0.400000000000000   0.400000000000000   0.549827696671590
    Al   0.066666666700000   0.066666666700000   0.599767637563744
    Al   0.733333333300000   0.733333333300000   0.649637374260770
    Al   0.333333333300000   0.333333333300000   0.700362498447496
    Al   0.000000000000000   0.000000000000000   0.750233272012843
    Al   0.666666666700000   0.666666666700000   0.800171958634849
    Al   0.333333333300000   0.333333333300000   0.850112527100034
    Al   1.000000000000000   1.000000000000000   0.900067921308714
    Al   0.666666666700000   0.666666666700000   0.949999896041812
%END BLOCK POSITIONS_FRAC
%BLOCK SPECIES_POT
    Al al.lda.recpot                                                                          
%END BLOCK SPECIES_POT
%BLOCK ION_OPTIMIZATION
           0           0           1
           0           0           1
           0           0           1
           0           0           1
           0           0           1
           0           0           1
           0           0           1
           0           0           1
           0           0           1
           0           0           1
           0           0           1
           0           0           1
           0           0           1
           0           0           1
           0           0           1
           0           0           1
           0           0           1
           0           0           1
           0           0           1
           0           0           1
%END BLOCK ION_OPTIMIZATION
