ATOMIC_SPECIES
Al 26.981539 Al_ONCV_PBE-1.2.upf

LATTICE_CONSTANT
7.4984327225523  // add lattice constant

LATTICE_VECTORS
0.707106781187    0.000000000000    0.000000000000    
0.353553390593    0.612372435696    0.000000000000    
0.000000000000    0.000000000000    11.547005383792515 

ATOMIC_POSITIONS
Direct

Al
0.0
20
    1.3633013551E-30  1.3633013551E-30  2.0318175298E-04 1 1 1
    3.3333333330E-01  3.3333333330E-01  4.9960797601E-02 1 1 1
    6.6666666670E-01  6.6666666670E-01  9.9992677974E-02 1 1 1
    1.2989711738E-30  1.2989711738E-30  1.4975679127E-01 1 1 1
    3.3333333330E-01  3.3333333330E-01  1.9979088780E-01 1 1 1
    9.6666666670E-01  9.6666666670E-01  2.5032936085E-01 1 1 1
    3.0000000000E-01  3.0000000000E-01  3.0026522219E-01 1 1 1
    6.3333333330E-01  6.3333333330E-01  3.5004922607E-01 1 1 1
    9.6666666670E-01  9.6666666670E-01  3.9982039894E-01 1 1 1
    3.0000000000E-01  3.0000000000E-01  4.5000000000E-01 1 1 1
    9.6666666670E-01  9.6666666670E-01  5.0017960106E-01 1 1 1
    6.3333333330E-01  6.3333333330E-01  5.4995077393E-01 1 1 1
    3.0000000000E-01  3.0000000000E-01  5.9973477781E-01 1 1 1
    9.6666666670E-01  9.6666666670E-01  6.4967063915E-01 1 1 1
    3.3333333330E-01  3.3333333330E-01  7.0020911220E-01 1 1 1
    1.2989711738E-30  1.2989711738E-30  7.5024320873E-01 1 1 1
    6.6666666670E-01  6.6666666670E-01  8.0000732203E-01 1 1 1
    3.3333333330E-01  3.3333333330E-01  8.5003920240E-01 1 1 1
    1.3633013551E-30  1.3633013551E-30  8.9979681825E-01 1 1 1
    6.6666666670E-01  6.6666666670E-01  9.5000000000E-01 1 1 1
