ATOMIC_SPECIES
C 12 /home/mhchen_pkuhpc/mhchen_cls/lustre2/5_liurenxi/03a01_abacus-lcao-scan/pp/SG15_ONCV_v1.0_upf/C_ONCV_PBE-1.0.upf
H 1 /home/mhchen_pkuhpc/mhchen_cls/lustre2/5_liurenxi/03a01_abacus-lcao-scan/pp/SG15_ONCV_v1.0_upf/H_ONCV_PBE-1.0.upf
N_empty 14 /home/mhchen_pkuhpc/mhchen_cls/lustre2/5_liurenxi/03a01_abacus-lcao-scan/pp/SG15_ONCV_v1.0_upf/N_ONCV_PBE-1.0.upf
C_empty 12 /home/mhchen_pkuhpc/mhchen_cls/lustre2/5_liurenxi/03a01_abacus-lcao-scan/pp/SG15_ONCV_v1.0_upf/C_ONCV_PBE-1.0.upf
H_empty 1 /home/mhchen_pkuhpc/mhchen_cls/lustre2/5_liurenxi/03a01_abacus-lcao-scan/pp/SG15_ONCV_v1.0_upf/H_ONCV_PBE-1.0.upf

LATTICE_CONSTANT
1.8897161646321

LATTICE_VECTORS
20 0 0
0 20 0
0 0 20

NUMERICAL_ORBITAL
/home/mhchen_pkuhpc/mhchen_cls/lustre2/5_liurenxi/03a01_abacus-lcao-scan/orb/Orb_DZP_E100_Full/C/C_gga_10au_100Ry_2s2p1d.orb
/home/mhchen_pkuhpc/mhchen_cls/lustre2/5_liurenxi/03a01_abacus-lcao-scan/orb/Orb_DZP_E100_Full/H/H_gga_10au_100Ry_2s1p.orb
/home/mhchen_pkuhpc/mhchen_cls/lustre2/5_liurenxi/03a01_abacus-lcao-scan/orb/Orb_DZP_E100_Full/N/N_gga_10au_100Ry_2s2p1d.orb
/home/mhchen_pkuhpc/mhchen_cls/lustre2/5_liurenxi/03a01_abacus-lcao-scan/orb/Orb_DZP_E100_Full/C/C_gga_10au_100Ry_2s2p1d.orb
/home/mhchen_pkuhpc/mhchen_cls/lustre2/5_liurenxi/03a01_abacus-lcao-scan/orb/Orb_DZP_E100_Full/H/H_gga_10au_100Ry_2s1p.orb

ATOMIC_POSITIONS
Cartesian    # Cartesian(Unit is LATTICE_CONSTANT)
C
0.0
6
-0.709774 -0.990423 1.207702 m 0 0 0 
-1.406534 -0.965353 0.000000 m 0 0 0 
-0.709774 -0.990423 -1.207702 m 0 0 0 
0.683965 -1.040510 -1.207865 m 0 0 0 
1.380978 -1.065552 0.000000 m 0 0 0 
0.683965 -1.040510 1.207865 m 0 0 0 
H
0.0
6
-1.249948 -0.968628 2.144051 m 0 0 0 
-2.486920 -0.923706 0.000000 m 0 0 0 
-1.249948 -0.968628 -2.144051 m 0 0 0 
1.224288 -1.058075 -2.144256 m 0 0 0 
2.461589 -1.102982 0.000000 m 0 0 0 
1.224288 -1.058075 2.144256 m 0 0 0 
N_empty
0.0
1
-0.003412 3.535393 0.000000 m 0 0 0 
C_empty
0.0
1
0.075196 2.370704 0.000000 m 0 0 0 
H_empty
0.0
1
0.147629 1.305285 0.000000 m 0 0 0 
