ATOMIC_SPECIES
Al 27 al.lda.lps

LATTICE_CONSTANT
7.50241114482

LATTICE_VECTORS
0.707106781187 0 0 #latvec1
0.353553390593 0.612372435696 0 #latvec2
0 0 12.7017059222 #latvec3

ATOMIC_POSITIONS
Direct

Al #label
0 #magnetism
22 #number of atoms
0 0 0.00147450636531 0 0 1 0 0 0
0.333333333332 0.333333333332 0.0445931048986 0 0 1 0 0 0
0.666666666668 0.666666666668 0.0921948240081 0 0 1 0 0 0
0 0 0.135957399842 0 0 1 0 0 0
0.333333333332 0.333333333332 0.18158881691 0 0 1 0 0 0
0 0 0.226204839964 0 0 1 0 0 0
0.4 0.4 0.275046271109 0 0 1 0 0 0
0.733333333334 0.733333333334 0.317524541506 0 0 1 0 0 0
0.0666666666675 0.0666666666675 0.36433747065 0 0 1 0 0 0
0.4 0.4 0.407775060227 0 0 1 0 0 0
0.733333333334 0.733333333334 0.454227825617 0 0 1 0 0 0
0.4 0.4 0.500722998209 0 0 1 0 0 0
0.0666666666675 0.0666666666675 0.544312203526 0 0 1 0 0 0
0.733333333334 0.733333333334 0.591302593988 0 0 1 0 0 0
0.4 0.4 0.633949855742 0 0 1 0 0 0
0 0 0.682967815454 0 0 1 0 0 0
0.333333333332 0.333333333332 0.727704413203 0 0 1 0 0 0
0 0 0.773421434956 0 0 1 0 0 0
0.666666666668 0.666666666668 0.817201078902 0 0 1 0 0 0
0.333333333332 0.333333333332 0.86481911347 0 0 1 0 0 0
0 0 0.907958967126 0 0 1 0 0 0
0.666666666668 0.666666666668 0.954714864327 0 0 1 0 0 0
