ATOMIC_SPECIES
Al 26.981539 al.lda.lps

LATTICE_CONSTANT
7.50241114482

LATTICE_VECTORS
0.707106781187 0 0 #latvec1
0.353553390593 0.612372435696 0 #latvec2
0 0 11.5470053838 #latvec3

ATOMIC_POSITIONS
Direct

Al #label
0 #magnetism
20 #number of atoms
0 0 0.00453721152079 0 0 1 0 0 0
0.333333333332 0.333333333332 0.050506366145 0 0 1 0 0 0
0.666666666668 0.666666666668 0.101591758984 0 0 1 0 0 0
0 0 0.14699928699 0 0 1 0 0 0
0.333333333332 0.333333333332 0.208698407029 0 0 1 0 0 0
0.666666666668 0.666666666668 0.248719589559 0 0 1 0 0 0
0 0 0.30157822492 0 0 1 0 0 0
0.333333333332 0.333333333332 0.343674810713 0 0 1 0 0 0
0.666666666668 0.666666666668 0.390540565412 0 0 1 0 0 0
0 0 0.436805861267 0 0 1 0 0 0
0.666666666668 0.666666666668 0.486204835388 0 0 1 0 0 0
0.333333333332 0.333333333332 0.545024691785 0 0 1 0 0 0
0 0 0.595926751199 0 0 1 0 0 0
0.666666666668 0.666666666668 0.652381134085 0 0 1 0 0 0
0.333333333332 0.333333333332 0.705618493296 0 0 1 0 0 0
0 0 0.76592999281 0 0 1 0 0 0
0.666666666668 0.666666666668 0.8090657568 0 0 1 0 0 0
0.333333333332 0.333333333332 0.855389817151 0 0 1 0 0 0
0 0 0.901912335018 0 0 1 0 0 0
0.666666666668 0.666666666668 0.948894109929 0 0 1 0 0 0
