%BLOCK LATTICE_CART
   0.001434752981193   2.106866278721766   2.106869898106027
   2.106867406800399   0.001440314562761   2.106865465776397
   2.106866846335547   2.106861285920971   0.001436650607544
%END BLOCK LATTICE_CART
%BLOCK POSITIONS_FRAC
    Li   0.000000000000000   0.000000000000000   0.000000000000000
%END BLOCK POSITIONS_FRAC
%BLOCK SPECIES_POT
    Li li.lda.recpot                                                                          
%END BLOCK SPECIES_POT
