%BLOCK LATTICE_CART
  -0.000504995824746   1.995467534533737   1.995467504686032
   1.995467450441676  -0.000505061599118   1.995467486601793
   1.995467450866635   1.995467516874457  -0.000505031833999
%END BLOCK LATTICE_CART
%BLOCK POSITIONS_FRAC
    Al   0.000000000000000   0.000000000000000   0.000000000000000
%END BLOCK POSITIONS_FRAC
%BLOCK SPECIES_POT
    Al al.lda.recpot                                                                          
%END BLOCK SPECIES_POT
