%BLOCK LATTICE_CART
2.704491357214    0.000000000000    0.000000000000    
0.000000000000    2.704491357214    0.000000000000    
0.000000000000    0.000000000000    2.704491357214    
%END BLOCK LATTICE_CART
%BLOCK POSITIONS_FRAC
Al    0.000000000000    0.000000000000    0.000000000000
%END BLOCK POSITIONS_FRAC
%BLOCK SPECIES_POT
Al al.gga.recpot
%END BLOCK SPECIES_POT
