ATOMIC_SPECIES
Ga  Ga_mass  Ga_pesudopotential
P  P_mass  P_pesudopotential
H  H_mass  H_pesudopotential
O  O_mass  O_pesudopotential
C  C_mass  C_pesudopotential

NUMERICAL_ORBITAL
Ga_orbital
P_orbital
H_orbital
O_orbital
C_orbital

LATTICE_CONSTANT
1.889727000000

LATTICE_VECTORS
46.817279999960  0.000000000000  0.000000000000
0.000000000000  30.388121999996  0.000000000000
0.000000000000  0.000000000000  49.657229999978

ATOMIC_POSITIONS
Direct

Ga
0
540
0.000534301168  0.015546180583  0.007447424323  1  1  1
0.000775732105  0.015534037531  0.340888668401  1  1  1
0.000702044542  0.015576530795  0.674173852763  1  1  1
0.334076521856  0.015530073564  0.007485135969  1  1  1
0.333879649215  0.015665424975  0.340702009672  1  1  1
0.334042359721  0.015577507854  0.674169094763  1  1  1
0.667360152173  0.015548221032  0.007502789929  1  1  1
0.667362513314  0.015553663229  0.340844713252  1  1  1
0.667368980363  0.015565877385  0.674173007926  1  1  1
0.332380970171  0.015443219413  0.229887765965  1  1  1
0.332348168045  0.015554192643  0.563263086615  1  1  1
0.332364679468  0.015556973196  0.896616031354  1  1  1
0.665680949546  0.015530496354  0.229934895563  1  1  1
0.665680164529  0.015545050712  0.563270863605  1  1  1
0.665678297389  0.015536356405  0.896599127965  1  1  1
0.999384444823  0.015492585715  0.230063139082  1  1  1
0.999017702371  0.015550095767  0.563268265570  1  1  1
0.998999792223  0.015568556993  0.896610496838  1  1  1
0.001294010176  0.015686380512  0.117895019146  1  1  1
0.001151604461  0.015851426219  0.451229188662  1  1  1
0.001138825107  0.015865306564  0.784559945723  1  1  1
0.334046642156  0.015375865669  0.118134550683  1  1  1
0.334473139019  0.015876973057  0.451210524219  1  1  1
0.334482368145  0.015861437465  0.784558835185  1  1  1
0.667807500324  0.015831260960  0.117887758258  1  1  1
0.667809006905  0.015847711045  0.451229255195  1  1  1
0.667810109428  0.015849667576  0.784557220125  1  1  1
0.166245359607  0.015504160218  0.007609476852  1  1  1
0.166380020256  0.015434443851  0.340643499296  1  1  1
0.166160482574  0.015397865373  0.675383723572  1  1  1
0.499469888641  0.015360323024  0.008770358532  1  1  1
0.499443646146  0.015382408183  0.342142700135  1  1  1
0.499485522815  0.015387320212  0.675419350317  1  1  1
0.832783688742  0.015368757068  0.008761596556  1  1  1
0.832825532906  0.015374694861  0.342139602469  1  1  1
0.832819143789  0.015387130567  0.675429025245  1  1  1
0.166199123133  0.008260683197  0.225627281858  1  1  1
0.163937923557  0.012197233846  0.558963258764  1  1  1
0.163938550403  0.012204753012  0.892284036215  1  1  1
0.497295520603  0.012214695289  0.225667897501  1  1  1
0.497263966490  0.012198437805  0.558971438447  1  1  1
0.497281130139  0.012190862111  0.892310422869  1  1  1
0.830640121534  0.012191248346  0.225651826336  1  1  1
0.830614751691  0.012203078238  0.558982983772  1  1  1
0.830593673061  0.012196383777  0.892306926974  1  1  1
0.167149617614  0.015301977468  0.119249641632  1  1  1
0.163185998184  0.980975299648  0.436391812154  1  1  1
0.163175395482  0.980968799390  0.769737688237  1  1  1
0.496495620327  0.980867809459  0.103042095801  1  1  1
0.496502695250  0.980932667241  0.436400914816  1  1  1
0.496510799821  0.980939098010  0.769727903064  1  1  1
0.829851746200  0.980889822983  0.103047228764  1  1  1
0.829850972138  0.980924129746  0.436396755636  1  1  1
0.829844178293  0.980941711617  0.769730137639  1  1  1
0.083314353176  0.015700396000  0.007373798433  1  1  1
0.083627119805  0.015739109328  0.340740137767  1  1  1
0.083478360706  0.015738375632  0.674158104538  1  1  1
0.416814786174  0.015689463644  0.007490391791  1  1  1
0.416768987978  0.015727706591  0.340851821995  1  1  1
0.416811783727  0.015732415692  0.674159151848  1  1  1
0.750134822817  0.015711204639  0.007491595355  1  1  1
0.750144850485  0.015714904435  0.340834156231  1  1  1
0.750144170625  0.015726139973  0.674161957755  1  1  1
0.083043649908  0.015351285217  0.230043541787  1  1  1
0.081056012317  0.015928884572  0.561582356742  1  1  1
0.081031367413  0.015946905839  0.894904899163  1  1  1
0.414367399754  0.015920145656  0.228282144785  1  1  1
0.414384059153  0.015923573118  0.561583294245  1  1  1
0.414397628880  0.015912520736  0.894920975703  1  1  1
0.747722006002  0.015897869819  0.228253011049  1  1  1
0.747722784777  0.015918273239  0.561587733655  1  1  1
0.747714373962  0.015911836880  0.894917336504  1  1  1
0.083592371171  0.015486257220  0.119308269452  1  1  1
0.083754428176  0.014820647528  0.453411226729  1  1  1
0.083741605664  0.014784370238  0.786774708996  1  1  1
0.416912844488  0.014183469394  0.120074222150  1  1  1
0.417068225935  0.014745865451  0.453437053920  1  1  1
0.417080249250  0.014755993334  0.786767656743  1  1  1
0.750416460468  0.014629437652  0.120090931243  1  1  1
0.750419319003  0.014696485378  0.453443783603  1  1  1
0.750411866482  0.014723565262  0.786769130204  1  1  1
0.250086135306  0.015601023233  0.007539603451  1  1  1
0.249874021258  0.015873671714  0.340629202500  1  1  1
0.249898345400  0.015694657895  0.674292097882  1  1  1
0.583221103057  0.015661005191  0.007629060025  1  1  1
0.583215435889  0.015672361373  0.340974764577  1  1  1
0.583226987157  0.015681893638  0.674297639378  1  1  1
0.916508094942  0.015669442961  0.007613575115  1  1  1
0.916587281890  0.015667259053  0.340983564701  1  1  1
0.916559935085  0.015687728503  0.674299250536  1  1  1
0.249757260009  0.011551410519  0.226165886052  1  1  1
0.249978559387  0.015746706679  0.563215304666  1  1  1
0.250000051152  0.015755221206  0.896550469831  1  1  1
0.583313966049  0.015709485209  0.229885030334  1  1  1
0.583308558260  0.015731243490  0.563221525687  1  1  1
0.583310715523  0.015721182981  0.896550652677  1  1  1
0.916713332689  0.015677031961  0.229906234338  1  1  1
0.916646103272  0.015736073440  0.563221943609  1  1  1
0.916632396909  0.015733116962  0.896551463854  1  1  1
0.250210791173  0.015763500731  0.117807623380  1  1  1
0.254348596441  0.018562269786  0.449173266532  1  1  1
0.254341157668  0.018533677993  0.782541697138  1  1  1
0.587652117375  0.018466136450  0.115876733367  1  1  1
0.587657726740  0.018504067505  0.449218198922  1  1  1
0.587667221584  0.018504903372  0.782543251203  1  1  1
0.921087212212  0.018374083688  0.115870759286  1  1  1
0.920995386275  0.018507567010  0.449219961251  1  1  1
0.920998521244  0.018520565605  0.782546541881  1  1  1
0.125344662754  0.064127732158  0.055134062503  1  1  1
0.127399289425  0.064531126410  0.388903411687  1  1  1
0.127283472561  0.064665373242  0.722423736880  1  1  1
0.460508287307  0.064638778260  0.055863592310  1  1  1
0.460596577336  0.064675231106  0.389153753544  1  1  1
0.460606855836  0.064665434961  0.722448691160  1  1  1
0.793919852456  0.064658818576  0.055829880662  1  1  1
0.793928591093  0.064665811747  0.389166850450  1  1  1
0.793938373083  0.064666107574  0.722458925365  1  1  1
0.125299067893  0.064281821086  0.276963447207  1  1  1
0.124953860710  0.064834898593  0.610991397588  1  1  1
0.124766857440  0.064860048804  0.944112186473  1  1  1
0.458258489994  0.064825953946  0.277731418975  1  1  1
0.458291982236  0.064837724917  0.611012389225  1  1  1
0.458289560628  0.064834430528  0.944360427900  1  1  1
0.791634583683  0.064832532473  0.277722429666  1  1  1
0.791628346009  0.064836205666  0.611020164585  1  1  1
0.791621415350  0.064834765940  0.944358649032  1  1  1
0.125467065114  0.064541170976  0.166212987529  1  1  1
0.125287730940  0.063633594521  0.496982001086  1  1  1
0.125291109523  0.063636665544  0.830316149998  1  1  1
0.458541735043  0.063606505011  0.163699809480  1  1  1
0.458615769885  0.063628452041  0.496999858132  1  1  1
0.458620444084  0.063624198231  0.830332509753  1  1  1
0.791934927699  0.063613916011  0.163685900714  1  1  1
0.791948671704  0.063625308779  0.497010190811  1  1  1
0.791944203253  0.063626472273  0.830336250700  1  1  1
0.292165159535  0.064111274968  0.054925263328  1  1  1
0.292264597476  0.064362339018  0.387829851113  1  1  1
0.292275631743  0.064368593199  0.721294870498  1  1  1
0.625604804038  0.064357304494  0.054680919671  1  1  1
0.625608971150  0.064363115321  0.388011682698  1  1  1
0.625608144640  0.064364787770  0.721319542246  1  1  1
0.958839322775  0.064336926679  0.054603069829  1  1  1
0.958946775015  0.064372531644  0.388016818151  1  1  1
0.958939868336  0.064368527868  0.721304353413  1  1  1
0.291460611209  0.063864881176  0.276526200623  1  1  1
0.291846846271  0.064376113885  0.610897336721  1  1  1
0.291864852496  0.064400773770  0.944244789321  1  1  1
0.625177039083  0.064369039034  0.277618635521  1  1  1
0.625177716964  0.064372863685  0.610922874192  1  1  1
0.625175998956  0.064368807166  0.944267209564  1  1  1
0.958540879452  0.064343430341  0.277650862088  1  1  1
0.958509489249  0.064376500314  0.610916591268  1  1  1
0.958495599083  0.064376388313  0.944220630183  1  1  1
0.291796087894  0.064487011483  0.165867991782  1  1  1
0.292072023840  0.064253333259  0.499052319775  1  1  1
0.292075186647  0.064254867709  0.832392356298  1  1  1
0.625398574080  0.064243493719  0.165757098089  1  1  1
0.625402886591  0.064249401156  0.499077156551  1  1  1
0.625403069479  0.064248862313  0.832408299006  1  1  1
0.958758971947  0.064257058109  0.165788647932  1  1  1
0.958735950083  0.064251320852  0.499071817093  1  1  1
0.958733066780  0.064255647517  0.832397972328  1  1  1
0.042233566720  0.064228474618  0.054987526744  1  1  1
0.043125941179  0.064242169377  0.388529671490  1  1  1
0.043094290072  0.064264250818  0.721851800454  1  1  1
0.376371669910  0.064185669271  0.055254039529  1  1  1
0.376400734488  0.064243456816  0.388513527689  1  1  1
0.376426895108  0.064265835694  0.721853065844  1  1  1
0.709761368944  0.064254378217  0.055201437306  1  1  1
0.709762146321  0.064256791450  0.388538971679  1  1  1
0.709762497391  0.064261156190  0.721860113217  1  1  1
0.041575057449  0.064230315949  0.277225860197  1  1  1
0.041408680674  0.064191881824  0.609913435077  1  1  1
0.041368807731  0.064223982965  0.943216646852  1  1  1
0.374634306021  0.064203886184  0.276809110017  1  1  1
0.374747377014  0.064192702666  0.609918194837  1  1  1
0.374747304173  0.064197914244  0.943275683622  1  1  1
0.708086967002  0.064186940695  0.276636426475  1  1  1
0.708082375512  0.064189646168  0.609936945561  1  1  1
0.708080566127  0.064186418897  0.943276899258  1  1  1
0.041517167905  0.064204598462  0.166022176603  1  1  1
0.041422655810  0.064193662861  0.499133845454  1  1  1
0.041416090681  0.064209750600  0.832459464877  1  1  1
0.374681172301  0.064240195411  0.165880818697  1  1  1
0.374753634085  0.064208391692  0.499132020012  1  1  1
0.374754633027  0.064204436788  0.832472403382  1  1  1
0.708085617882  0.064195191278  0.165826275812  1  1  1
0.708086218013  0.064200504456  0.499148947132  1  1  1
0.708085027322  0.064200447570  0.832478493124  1  1  1
0.208106678327  0.064145249150  0.054970728494  1  1  1
0.205725829169  0.064366202116  0.388485438370  1  1  1
0.205764271073  0.064461218476  0.721947524734  1  1  1
0.539090630726  0.064444714585  0.055312047545  1  1  1
0.539098385928  0.064455888508  0.388636202414  1  1  1
0.539100794502  0.064457229242  0.721959895816  1  1  1
0.872425005439  0.064437284182  0.055300425152  1  1  1
0.872446691633  0.064456007386  0.388648754840  1  1  1
0.872430139732  0.064460999056  0.721957777047  1  1  1
0.208122884376  0.064042324125  0.276398656473  1  1  1
0.207838451295  0.064374611891  0.611126131879  1  1  1
0.207919931310  0.064403114210  0.944301856876  1  1  1
0.541161931903  0.064365246452  0.277843056118  1  1  1
0.541170024904  0.064371460456  0.611143874747  1  1  1
0.541168563771  0.064367627564  0.944490557570  1  1  1
0.874513485453  0.064365241047  0.277853810439  1  1  1
0.874503186173  0.064374477499  0.611147603817  1  1  1
0.874496091901  0.064369349597  0.944474602049  1  1  1
0.207978047115  0.064788702574  0.166105473582  1  1  1
0.207945366847  0.066832810268  0.500671000693  1  1  1
0.207947557749  0.066839175515  0.834011567053  1  1  1
0.541283422204  0.066800783986  0.167378671069  1  1  1
0.541281230570  0.066828224334  0.500695559524  1  1  1
0.541283947069  0.066819487025  0.834028016375  1  1  1
0.874640517555  0.066829748635  0.167383180085  1  1  1
0.874615796191  0.066815380305  0.500699584229  1  1  1
0.874612756729  0.066822161072  0.834019864009  1  1  1
0.000000000000  0.130439996734  0.000000000000  0  0  0
0.000000000000  0.130439996734  0.333333333334  0  0  0
0.000000000000  0.130439996734  0.666666666666  0  0  0
0.333333333334  0.130439996734  0.000000000000  0  0  0
0.333333333334  0.130439996734  0.333333333334  0  0  0
0.333333333334  0.130439996734  0.666666666666  0  0  0
0.666666666666  0.130439996734  0.000000000000  0  0  0
0.666666666666  0.130439996734  0.333333333334  0  0  0
0.666666666666  0.130439996734  0.666666666666  0  0  0
0.000000000000  0.130439996734  0.222223341380  0  0  0
0.000000000000  0.130439996734  0.555556674713  0  0  0
0.000000000000  0.130439996734  0.888890008047  0  0  0
0.333333333334  0.130439996734  0.222223341380  0  0  0
0.333333333334  0.130439996734  0.555556674713  0  0  0
0.333333333334  0.130439996734  0.888890008047  0  0  0
0.666666666666  0.130439996734  0.222223341380  0  0  0
0.666666666666  0.130439996734  0.555556674713  0  0  0
0.666666666666  0.130439996734  0.888890008047  0  0  0
0.000000000000  0.130439996734  0.111110001801  0  0  0
0.000000000000  0.130439996734  0.444443335133  0  0  0
0.000000000000  0.130439996734  0.777776668467  0  0  0
0.333333333334  0.130439996734  0.111110001801  0  0  0
0.333333333334  0.130439996734  0.444443335133  0  0  0
0.333333333334  0.130439996734  0.777776668467  0  0  0
0.666666666666  0.130439996734  0.111110001801  0  0  0
0.666666666666  0.130439996734  0.444443335133  0  0  0
0.666666666666  0.130439996734  0.777776668467  0  0  0
0.166666666675  0.130439996734  0.000000000000  0  0  0
0.166666666675  0.130439996734  0.333333333334  0  0  0
0.166666666675  0.130439996734  0.666666666666  0  0  0
0.500000000009  0.130439996734  0.000000000000  0  0  0
0.500000000009  0.130439996734  0.333333333334  0  0  0
0.500000000009  0.130439996734  0.666666666666  0  0  0
0.833333333341  0.130439996734  0.000000000000  0  0  0
0.833333333341  0.130439996734  0.333333333334  0  0  0
0.833333333341  0.130439996734  0.666666666666  0  0  0
0.166666666675  0.130439996734  0.222223341380  0  0  0
0.166666666675  0.130439996734  0.555556674713  0  0  0
0.166666666675  0.130439996734  0.888890008047  0  0  0
0.500000000009  0.130439996734  0.222223341380  0  0  0
0.500000000009  0.130439996734  0.555556674713  0  0  0
0.500000000009  0.130439996734  0.888890008047  0  0  0
0.833333333341  0.130439996734  0.222223341380  0  0  0
0.833333333341  0.130439996734  0.555556674713  0  0  0
0.833333333341  0.130439996734  0.888890008047  0  0  0
0.166666666675  0.130439996734  0.111110001801  0  0  0
0.166666666675  0.130439996734  0.444443335133  0  0  0
0.166666666675  0.130439996734  0.777776668467  0  0  0
0.500000000009  0.130439996734  0.111110001801  0  0  0
0.500000000009  0.130439996734  0.444443335133  0  0  0
0.500000000009  0.130439996734  0.777776668467  0  0  0
0.833333333341  0.130439996734  0.111110001801  0  0  0
0.833333333341  0.130439996734  0.444443335133  0  0  0
0.833333333341  0.130439996734  0.777776668467  0  0  0
0.083333333327  0.130439996734  0.000000000000  0  0  0
0.083333333327  0.130439996734  0.333333333334  0  0  0
0.083333333327  0.130439996734  0.666666666666  0  0  0
0.416666666661  0.130439996734  0.000000000000  0  0  0
0.416666666661  0.130439996734  0.333333333334  0  0  0
0.416666666661  0.130439996734  0.666666666666  0  0  0
0.749999999993  0.130439996734  0.000000000000  0  0  0
0.749999999993  0.130439996734  0.333333333334  0  0  0
0.749999999993  0.130439996734  0.666666666666  0  0  0
0.083333333327  0.130439996734  0.222223341380  0  0  0
0.083333333327  0.130439996734  0.555556674713  0  0  0
0.083333333327  0.130439996734  0.888890008047  0  0  0
0.416666666661  0.130439996734  0.222223341380  0  0  0
0.416666666661  0.130439996734  0.555556674713  0  0  0
0.416666666661  0.130439996734  0.888890008047  0  0  0
0.749999999993  0.130439996734  0.222223341380  0  0  0
0.749999999993  0.130439996734  0.555556674713  0  0  0
0.749999999993  0.130439996734  0.888890008047  0  0  0
0.083333333327  0.130439996734  0.111110001801  0  0  0
0.083333333327  0.130439996734  0.444443335133  0  0  0
0.083333333327  0.130439996734  0.777776668467  0  0  0
0.416666666661  0.130439996734  0.111110001801  0  0  0
0.416666666661  0.130439996734  0.444443335133  0  0  0
0.416666666661  0.130439996734  0.777776668467  0  0  0
0.749999999993  0.130439996734  0.111110001801  0  0  0
0.749999999993  0.130439996734  0.444443335133  0  0  0
0.749999999993  0.130439996734  0.777776668467  0  0  0
0.250000000089  0.130439996734  0.000000000000  0  0  0
0.250000000089  0.130439996734  0.333333333334  0  0  0
0.250000000089  0.130439996734  0.666666666666  0  0  0
0.583333333421  0.130439996734  0.000000000000  0  0  0
0.583333333421  0.130439996734  0.333333333334  0  0  0
0.583333333421  0.130439996734  0.666666666666  0  0  0
0.916666666755  0.130439996734  0.000000000000  0  0  0
0.916666666755  0.130439996734  0.333333333334  0  0  0
0.916666666755  0.130439996734  0.666666666666  0  0  0
0.250000000089  0.130439996734  0.222223341380  0  0  0
0.250000000089  0.130439996734  0.555556674713  0  0  0
0.250000000089  0.130439996734  0.888890008047  0  0  0
0.583333333421  0.130439996734  0.222223341380  0  0  0
0.583333333421  0.130439996734  0.555556674713  0  0  0
0.583333333421  0.130439996734  0.888890008047  0  0  0
0.916666666755  0.130439996734  0.222223341380  0  0  0
0.916666666755  0.130439996734  0.555556674713  0  0  0
0.916666666755  0.130439996734  0.888890008047  0  0  0
0.250000000089  0.130439996734  0.111110001801  0  0  0
0.250000000089  0.130439996734  0.444443335133  0  0  0
0.250000000089  0.130439996734  0.777776668467  0  0  0
0.583333333421  0.130439996734  0.111110001801  0  0  0
0.583333333421  0.130439996734  0.444443335133  0  0  0
0.583333333421  0.130439996734  0.777776668467  0  0  0
0.916666666755  0.130439996734  0.111110001801  0  0  0
0.916666666755  0.130439996734  0.444443335133  0  0  0
0.916666666755  0.130439996734  0.777776668467  0  0  0
0.125293739443  0.196490824827  0.055197414858  1  1  1
0.126360215649  0.196009177435  0.389352818353  1  1  1
0.126139973303  0.195854262531  0.723338099812  1  1  1
0.459410701538  0.195881200592  0.056748836376  1  1  1
0.459464766321  0.195852326334  0.390061232140  1  1  1
0.459468890314  0.195855863376  0.723364672283  1  1  1
0.792802871765  0.195864511947  0.056734521757  1  1  1
0.792797768356  0.195859850006  0.390071981064  1  1  1
0.792803554496  0.195855242571  0.723372273310  1  1  1
0.125346849855  0.196540470792  0.276702418956  1  1  1
0.125087164368  0.196026513459  0.610886212162  1  1  1
0.125012011278  0.196027830103  0.943981038153  1  1  1
0.458388615768  0.196024645718  0.277638008651  1  1  1
0.458419710143  0.196021773172  0.610912277248  1  1  1
0.458416937934  0.196020717469  0.944264747168  1  1  1
0.791756390070  0.196020722870  0.277631802801  1  1  1
0.791754408225  0.196020942364  0.610922686681  1  1  1
0.791750005252  0.196022074328  0.944263904350  1  1  1
0.125617060422  0.196384663627  0.166050880345  1  1  1
0.125350577976  0.198971483050  0.496790377353  1  1  1
0.125352586835  0.198959610355  0.830126250495  1  1  1
0.458620378586  0.198975389982  0.163518231758  1  1  1
0.458680251315  0.198967613943  0.496809820052  1  1  1
0.458683764717  0.198974570640  0.830142010582  1  1  1
0.792003052239  0.198982682349  0.163496713063  1  1  1
0.792013889707  0.198971620768  0.496820967381  1  1  1
0.792009740374  0.198969947813  0.830146874438  1  1  1
0.292141289185  0.196542768056  0.054957939562  1  1  1
0.292147393337  0.196273972836  0.388050694138  1  1  1
0.292157844917  0.196281072358  0.721447020577  1  1  1
0.625487142511  0.196295145829  0.054814190671  1  1  1
0.625490837584  0.196289252457  0.388146131273  1  1  1
0.625489998320  0.196285999286  0.721462401785  1  1  1
0.958800244801  0.196296563417  0.054796829914  1  1  1
0.958827711513  0.196279566991  0.388151720968  1  1  1
0.958821956661  0.196281682423  0.721453412616  1  1  1
0.291307136598  0.197014252945  0.276420145999  1  1  1
0.291875358252  0.196253668289  0.610932599146  1  1  1
0.291896061115  0.196227851773  0.944271131446  1  1  1
0.625204129333  0.196260319212  0.277644542722  1  1  1
0.625205999350  0.196256275061  0.610953669650  1  1  1
0.625204266283  0.196259859373  0.944296217327  1  1  1
0.958553570016  0.196292780357  0.277650754313  1  1  1
0.958538005695  0.196252612458  0.610948981800  1  1  1
0.958529197066  0.196254103829  0.944262805625  1  1  1
0.291496474943  0.196232581040  0.165992736256  1  1  1
0.292003114074  0.196466626319  0.499059364077  1  1  1
0.292004739738  0.196466446100  0.832399098295  1  1  1
0.625330485414  0.196475680877  0.165763126699  1  1  1
0.625333682300  0.196470043969  0.499083450589  1  1  1
0.625333823735  0.196470537795  0.832414336654  1  1  1
0.958695622777  0.196469558871  0.165793105990  1  1  1
0.958666397658  0.196468092680  0.499078412572  1  1  1
0.958663983830  0.196463347972  0.832403975471  1  1  1
0.042735832412  0.196435612355  0.055062133041  1  1  1
0.043034526762  0.196422603590  0.388547774962  1  1  1
0.042985523980  0.196407016285  0.721852740527  1  1  1
0.376237209811  0.196484628744  0.055247582225  1  1  1
0.376291355759  0.196423082286  0.388511666301  1  1  1
0.376318237706  0.196404965642  0.721853527344  1  1  1
0.709647863226  0.196414363183  0.055199948892  1  1  1
0.709650329096  0.196413327838  0.388538797718  1  1  1
0.709651380433  0.196408955060  0.721859886017  1  1  1
0.041591854268  0.196379232506  0.277524632893  1  1  1
0.041436678198  0.196457508114  0.609975886214  1  1  1
0.041399118460  0.196425741329  0.943276346649  1  1  1
0.374631706309  0.196426187305  0.277033068467  1  1  1
0.374775056301  0.196457017824  0.609979641000  1  1  1
0.374775829684  0.196444931759  0.943344423316  1  1  1
0.708113415640  0.196459612283  0.276714416360  1  1  1
0.708109657904  0.196458631969  0.610003745973  1  1  1
0.708108073212  0.196461230123  0.943345424003  1  1  1
0.041584744608  0.196508800455  0.165981946931  1  1  1
0.041488044886  0.196512649919  0.499117896416  1  1  1
0.041480501639  0.196498312293  0.832444114413  1  1  1
0.374685233261  0.196463051380  0.165896380391  1  1  1
0.374818576442  0.196498646537  0.499117694158  1  1  1
0.374818644525  0.196502793303  0.832457330454  1  1  1
0.708148238480  0.196510521743  0.165812641800  1  1  1
0.708149372693  0.196504814831  0.499135228203  1  1  1
0.708149059328  0.196505680236  0.832464037167  1  1  1
0.208120551398  0.196460394436  0.055010907893  1  1  1
0.205692094261  0.196273960588  0.388519499383  1  1  1
0.205759787478  0.196165680461  0.721996769274  1  1  1
0.539089190698  0.196184086298  0.055360146745  1  1  1
0.539093153801  0.196174498526  0.388683047286  1  1  1
0.539096036037  0.196171434705  0.722008103727  1  1  1
0.872433342426  0.196189240372  0.055347760928  1  1  1
0.872440078147  0.196174601449  0.388695880393  1  1  1
0.872425419406  0.196168230444  0.722005236633  1  1  1
0.208135716317  0.196851608071  0.276284427439  1  1  1
0.207867585589  0.196396048679  0.611112044556  1  1  1
0.207923326237  0.196364585591  0.944326645182  1  1  1
0.541195459858  0.196400307372  0.277822022833  1  1  1
0.541201056393  0.196396228982  0.611127644022  1  1  1
0.541200199283  0.196398477370  0.944473345640  1  1  1
0.874548610967  0.196402212896  0.277834984034  1  1  1
0.874534941161  0.196393872033  0.611130268136  1  1  1
0.874530067618  0.196396597687  0.944458258262  1  1  1
0.207883915018  0.196115118562  0.166176115036  1  1  1
0.207953934405  0.195996913049  0.499350425789  1  1  1
0.207956266432  0.195990438001  0.832693712723  1  1  1
0.541289785795  0.196008171759  0.166068422005  1  1  1
0.541287950106  0.195997746046  0.499378320326  1  1  1
0.541290916360  0.196000619849  0.832712851124  1  1  1
0.874649798559  0.195998364591  0.166072861010  1  1  1
0.874623859148  0.196001376731  0.499386858246  1  1  1
0.874619611316  0.195998914172  0.832701440577  1  1  1
0.000556649543  0.245010783260  0.007512073369  1  1  1
0.000723024350  0.245053628424  0.340944965190  1  1  1
0.000660574326  0.244993548066  0.674212557412  1  1  1
0.334055642918  0.245050764423  0.007516630981  1  1  1
0.333784808862  0.244877325034  0.340717358244  1  1  1
0.334001688100  0.244992860573  0.674208001781  1  1  1
0.667319822234  0.245024144188  0.007540213224  1  1  1
0.667321496285  0.245018657796  0.340882989561  1  1  1
0.667327869067  0.245005123853  0.674211158561  1  1  1
0.332466323340  0.245174100841  0.229902337366  1  1  1
0.332436815273  0.244991438798  0.563274895889  1  1  1
0.332455187993  0.244988629069  0.896627320821  1  1  1
0.665770230409  0.245016110681  0.229947856296  1  1  1
0.665769001057  0.245001343600  0.563282457847  1  1  1
0.665767204537  0.245010620286  0.896610867142  1  1  1
0.999485513779  0.245014565041  0.230082864167  1  1  1
0.999106430169  0.244995991592  0.563279760119  1  1  1
0.999086775147  0.244978397259  0.896620093646  1  1  1
0.001315356801  0.244953716551  0.117886255455  1  1  1
0.001161441440  0.244858826645  0.451267725525  1  1  1
0.001148996421  0.244849146697  0.784599619617  1  1  1
0.333988885528  0.245279960991  0.118229930364  1  1  1
0.334485081133  0.244844368034  0.451259023784  1  1  1
0.334491843245  0.244853411052  0.784599419680  1  1  1
0.667817561878  0.244876429640  0.117925052378  1  1  1
0.667818523858  0.244861979654  0.451267145120  1  1  1
0.667819653322  0.244861966987  0.784596068364  1  1  1
0.166251904794  0.245029580163  0.008205133484  1  1  1
0.166142059189  0.244988177045  0.340686520207  1  1  1
0.166005805132  0.245049284210  0.675686126393  1  1  1
0.499328562227  0.245094107548  0.009034576214  1  1  1
0.499306982801  0.245071379689  0.342382386555  1  1  1
0.499334592868  0.245061591925  0.675695362332  1  1  1
0.832653708054  0.245082700670  0.009032042328  1  1  1
0.832673427588  0.245076931156  0.342379564489  1  1  1
0.832668967393  0.245062289779  0.675697771240  1  1  1
0.166635851346  0.254639691947  0.225681302274  1  1  1
0.165225527655  0.248670829287  0.558962057134  1  1  1
0.165228927346  0.248669922330  0.892278010085  1  1  1
0.498564333804  0.248645656455  0.225675876094  1  1  1
0.498553502890  0.248667042591  0.558973581990  1  1  1
0.498559587272  0.248675967848  0.892310957028  1  1  1
0.831909562707  0.248671425981  0.225658123678  1  1  1
0.831893933842  0.248662188037  0.558985182980  1  1  1
0.831885450668  0.248668015252  0.892309822084  1  1  1
0.167253004233  0.247632247944  0.118121105818  1  1  1
0.163056992010  0.279718955321  0.434572734310  1  1  1
0.163047881973  0.279745387623  0.767930027777  1  1  1
0.496364811065  0.279837085016  0.101236864746  1  1  1
0.496373370101  0.279779399065  0.434596361840  1  1  1
0.496384579380  0.279774664975  0.767920606503  1  1  1
0.829727592209  0.279820256681  0.101240689614  1  1  1
0.829725867127  0.279786789703  0.434592432481  1  1  1
0.829717075138  0.279770849702  0.767924179759  1  1  1
0.083317939007  0.244869197988  0.007354393593  1  1  1
0.083588943394  0.244872274313  0.340801355668  1  1  1
0.083447323204  0.244814286745  0.674205439403  1  1  1
0.416790093777  0.244862215082  0.007537805272  1  1  1
0.416740382341  0.244830279718  0.340911615580  1  1  1
0.416781849515  0.244820916866  0.674207710129  1  1  1
0.750108296378  0.244842387137  0.007541472793  1  1  1
0.750115855359  0.244840303888  0.340885331715  1  1  1
0.750114667949  0.244827359579  0.674211341566  1  1  1
0.083103152257  0.245332435296  0.230047462944  1  1  1
0.081224738418  0.244728449184  0.561609070421  1  1  1
0.081198374238  0.244709752858  0.894931641339  1  1  1
0.414530636919  0.244713691510  0.228320134117  1  1  1
0.414552751230  0.244733988649  0.561610690411  1  1  1
0.414565349505  0.244742428284  0.894949755097  1  1  1
0.747889209791  0.244755040373  0.228283198130  1  1  1
0.747890507216  0.244738012070  0.561615727277  1  1  1
0.747883428919  0.244743360442  0.894945536851  1  1  1
0.083622155362  0.247195834082  0.119308184507  1  1  1
0.083690506625  0.248203008979  0.453485323518  1  1  1
0.083667726137  0.248237052360  0.786895059830  1  1  1
0.416843636790  0.248327021441  0.120203493144  1  1  1
0.416993232311  0.248250543476  0.453556585756  1  1  1
0.417004639249  0.248248984363  0.786884794249  1  1  1
0.750339081091  0.248279216263  0.120204689963  1  1  1
0.750341665608  0.248263158516  0.453563969060  1  1  1
0.750335621924  0.248256566716  0.786886800248  1  1  1
0.250099187254  0.244971627159  0.007559779645  1  1  1
0.249827180460  0.244739089835  0.340682343195  1  1  1
0.249875148153  0.244876756824  0.674351233682  1  1  1
0.583198105542  0.244910342424  0.007685666629  1  1  1
0.583192407372  0.244899290683  0.341031824067  1  1  1
0.583203316124  0.244889446411  0.674355480160  1  1  1
0.916504121021  0.244899383735  0.007682484408  1  1  1
0.916561130595  0.244903863746  0.341039621440  1  1  1
0.916536776247  0.244883341481  0.674358423971  1  1  1
0.249784971677  0.251557454508  0.226270653524  1  1  1
0.250085144149  0.244824359029  0.563133312122  1  1  1
0.250103273340  0.244810577505  0.896474298474  1  1  1
0.583418623190  0.244862587200  0.229799823349  1  1  1
0.583415537330  0.244840062532  0.563137997951  1  1  1