ATOMIC_SPECIES
Ga  Ga_mass  Ga_pesudopotential
P  P_mass  P_pesudopotential
H  H_mass  H_pesudopotential
O  O_mass  O_pesudopotential
C  C_mass  C_pesudopotential

NUMERICAL_ORBITAL
Ga_orbital
P_orbital
H_orbital
O_orbital
C_orbital

LATTICE_CONSTANT
1.889727000000

LATTICE_VECTORS
46.817279999960  0.000000000000  0.000000000000
0.000000000000  30.388121999996  0.000000000000
0.000000000000  0.000000000000  49.657229999978

ATOMIC_POSITIONS
Direct

Ga
0
540
0.000699591362  0.015558811658  0.007485786297  1  1  1
0.000699591363  0.015558811659  0.340819119630  1  1  1
0.000699591363  0.015558811657  0.674152452964  1  1  1
0.334032924696  0.015558811658  0.007485786297  1  1  1
0.334032924696  0.015558811658  0.340819119630  1  1  1
0.334032924696  0.015558811658  0.674152452964  1  1  1
0.667366258030  0.015558811658  0.007485786297  1  1  1
0.667366258030  0.015558811658  0.340819119630  1  1  1
0.667366258030  0.015558811658  0.674152452964  1  1  1
0.332350834856  0.015534837389  0.229927821688  1  1  1
0.332350834856  0.015534837389  0.563261155021  1  1  1
0.332350834856  0.015534837389  0.896594488354  1  1  1
0.665684168189  0.015534837389  0.229927821688  1  1  1
0.665684168190  0.015534837389  0.563261155021  1  1  1
0.665684168190  0.015534837389  0.896594488354  1  1  1
0.999017501522  0.015534837389  0.229927821688  1  1  1
0.999017501522  0.015534837389  0.563261155021  1  1  1
0.999017501522  0.015534837389  0.896594488354  1  1  1
0.001146229880  0.015865012206  0.117878027430  1  1  1
0.001146229880  0.015865012206  0.451211360763  1  1  1
0.001146229880  0.015865012206  0.784544694097  1  1  1
0.334479563213  0.015865012207  0.117878027430  1  1  1
0.334479563214  0.015865012207  0.451211360763  1  1  1
0.334479563214  0.015865012207  0.784544694097  1  1  1
0.667812896547  0.015865012206  0.117878027430  1  1  1
0.667812896547  0.015865012207  0.451211360763  1  1  1
0.667812896547  0.015865012206  0.784544694097  1  1  1
0.166157082975  0.015375748882  0.008820097409  1  1  1
0.166157082975  0.015375748883  0.342153430742  1  1  1
0.166157082975  0.015375748882  0.675486764076  1  1  1
0.499490416309  0.015375748883  0.008820097409  1  1  1
0.499490416308  0.015375748883  0.342153430741  1  1  1
0.499490416309  0.015375748882  0.675486764076  1  1  1
0.832823749642  0.015375748883  0.008820097409  1  1  1
0.832823749642  0.015375748883  0.342153430741  1  1  1
0.832823749642  0.015375748883  0.675486764076  1  1  1
0.163995596415  0.012206222560  0.225618514712  1  1  1
0.163995596415  0.012206222560  0.558951848046  1  1  1
0.163995596415  0.012206222560  0.892285181379  1  1  1
0.497328929749  0.012206222560  0.225618514712  1  1  1
0.497328929749  0.012206222560  0.558951848046  1  1  1
0.497328929749  0.012206222560  0.892285181379  1  1  1
0.830662263081  0.012206222560  0.225618514712  1  1  1
0.830662263081  0.012206222560  0.558951848046  1  1  1
0.830662263082  0.012206222560  0.892285181379  1  1  1
0.163195651650  0.980890004100  0.103033506074  1  1  1
0.163195651650  0.980890004101  0.436366839407  1  1  1
0.163195651650  0.980890004101  0.769700172740  1  1  1
0.496528984983  0.980890004101  0.103033506074  1  1  1
0.496528984983  0.980890004100  0.436366839407  1  1  1
0.496528984983  0.980890004101  0.769700172740  1  1  1
0.829862318317  0.980890004101  0.103033506074  1  1  1
0.829862318316  0.980890004101  0.436366839407  1  1  1
0.829862318316  0.980890004101  0.769700172741  1  1  1
0.083479718965  0.015725590645  0.007483368708  1  1  1
0.083479718965  0.015725590645  0.340816702041  1  1  1
0.083479718965  0.015725590645  0.674150035375  1  1  1
0.416813052298  0.015725590645  0.007483368708  1  1  1
0.416813052298  0.015725590646  0.340816702041  1  1  1
0.416813052298  0.015725590645  0.674150035375  1  1  1
0.750146385632  0.015725590645  0.007483368708  1  1  1
0.750146385632  0.015725590646  0.340816702041  1  1  1
0.750146385632  0.015725590645  0.674150035375  1  1  1
0.081061462203  0.015912100749  0.228243012634  1  1  1
0.081061462203  0.015912100750  0.561576345968  1  1  1
0.081061462203  0.015912100749  0.894909679300  1  1  1
0.414394795536  0.015912100750  0.228243012634  1  1  1
0.414394795536  0.015912100749  0.561576345968  1  1  1
0.414394795536  0.015912100750  0.894909679301  1  1  1
0.747728128870  0.015912100750  0.228243012634  1  1  1
0.747728128870  0.015912100749  0.561576345968  1  1  1
0.747728128870  0.015912100750  0.894909679301  1  1  1
0.083703113962  0.014809467004  0.120068092033  1  1  1
0.083703113962  0.014809467005  0.453401425367  1  1  1
0.083703113962  0.014809467005  0.786734758701  1  1  1
0.417036447295  0.014809467005  0.120068092033  1  1  1
0.417036447295  0.014809467005  0.453401425367  1  1  1
0.417036447295  0.014809467005  0.786734758701  1  1  1
0.750369780629  0.014809467005  0.120068092034  1  1  1
0.750369780629  0.014809467005  0.453401425367  1  1  1
0.750369780628  0.014809467005  0.786734758701  1  1  1
0.249898536703  0.015673688905  0.007623860243  1  1  1
0.249898536703  0.015673688905  0.340957193576  1  1  1
0.249898536702  0.015673688905  0.674290526910  1  1  1
0.583231870036  0.015673688905  0.007623860243  1  1  1
0.583231870036  0.015673688905  0.340957193576  1  1  1
0.583231870036  0.015673688905  0.674290526910  1  1  1
0.916565203369  0.015673688905  0.007623860243  1  1  1
0.916565203369  0.015673688906  0.340957193576  1  1  1
0.916565203369  0.015673688905  0.674290526910  1  1  1
0.249987097004  0.015722497822  0.229875123018  1  1  1
0.249987097004  0.015722497822  0.563208456351  1  1  1
0.249987097004  0.015722497823  0.896541789685  1  1  1
0.583320430338  0.015722497822  0.229875123018  1  1  1
0.583320430337  0.015722497822  0.563208456351  1  1  1
0.583320430337  0.015722497822  0.896541789685  1  1  1
0.916653763670  0.015722497823  0.229875123018  1  1  1
0.916653763670  0.015722497822  0.563208456351  1  1  1
0.916653763670  0.015722497822  0.896541789684  1  1  1
0.254357804902  0.018509321361  0.115849999970  1  1  1
0.254357804902  0.018509321361  0.449183333304  1  1  1
0.254357804902  0.018509321361  0.782516666637  1  1  1
0.587691138235  0.018509321361  0.115849999970  1  1  1
0.587691138235  0.018509321361  0.449183333304  1  1  1
0.587691138236  0.018509321361  0.782516666637  1  1  1
0.921024471569  0.018509321362  0.115849999970  1  1  1
0.921024471569  0.018509321361  0.449183333303  1  1  1
0.921024471569  0.018509321362  0.782516666637  1  1  1
0.127261336326  0.064675897018  0.055828173165  1  1  1
0.127261336327  0.064675897017  0.389161506499  1  1  1
0.127261336327  0.064675897018  0.722494839831  1  1  1
0.460594669660  0.064675897018  0.055828173165  1  1  1
0.460594669660  0.064675897018  0.389161506498  1  1  1
0.460594669660  0.064675897018  0.722494839831  1  1  1
0.793928002993  0.064675897018  0.055828173165  1  1  1
0.793928002993  0.064675897017  0.389161506499  1  1  1
0.793928002993  0.064675897019  0.722494839831  1  1  1
0.124993073398  0.064843670064  0.277706654110  1  1  1
0.124993073398  0.064843670064  0.611039987443  1  1  1
0.124993073398  0.064843670063  0.944373320776  1  1  1
0.458326406731  0.064843670064  0.277706654109  1  1  1
0.458326406731  0.064843670064  0.611039987442  1  1  1
0.458326406731  0.064843670063  0.944373320776  1  1  1
0.791659740064  0.064843670064  0.277706654109  1  1  1
0.791659740064  0.064843670064  0.611039987442  1  1  1
0.791659740064  0.064843670063  0.944373320776  1  1  1
0.125269607531  0.063593618937  0.163663466577  1  1  1
0.125269607531  0.063593618937  0.496996799910  1  1  1
0.125269607531  0.063593618938  0.830330133244  1  1  1
0.458602940865  0.063593618937  0.163663466577  1  1  1
0.458602940864  0.063593618937  0.496996799910  1  1  1
0.458602940864  0.063593618938  0.830330133244  1  1  1
0.791936274198  0.063593618937  0.163663466577  1  1  1
0.791936274198  0.063593618937  0.496996799910  1  1  1
0.791936274198  0.063593618938  0.830330133244  1  1  1
0.292283674163  0.064360906875  0.054647087748  1  1  1
0.292283674164  0.064360906874  0.387980421081  1  1  1
0.292283674164  0.064360906875  0.721313754414  1  1  1
0.625617007497  0.064360906874  0.054647087748  1  1  1
0.625617007497  0.064360906873  0.387980421082  1  1  1
0.625617007497  0.064360906875  0.721313754414  1  1  1
0.958950340830  0.064360906874  0.054647087748  1  1  1
0.958950340830  0.064360906874  0.387980421081  1  1  1
0.958950340830  0.064360906875  0.721313754414  1  1  1
0.291845568396  0.064375372754  0.277603165383  1  1  1
0.291845568395  0.064375372753  0.610936498716  1  1  1
0.291845568396  0.064375372753  0.944269832050  1  1  1
0.625178901729  0.064375372753  0.277603165384  1  1  1
0.625178901729  0.064375372753  0.610936498716  1  1  1
0.625178901730  0.064375372753  0.944269832050  1  1  1
0.958512235062  0.064375372754  0.277603165383  1  1  1
0.958512235062  0.064375372753  0.610936498716  1  1  1
0.958512235062  0.064375372753  0.944269832050  1  1  1
0.292069772890  0.064244642197  0.165741318351  1  1  1
0.292069772890  0.064244642197  0.499074651684  1  1  1
0.292069772890  0.064244642198  0.832407985017  1  1  1
0.625403106224  0.064244642197  0.165741318351  1  1  1
0.625403106223  0.064244642197  0.499074651684  1  1  1
0.625403106223  0.064244642198  0.832407985017  1  1  1
0.958736439556  0.064244642197  0.165741318351  1  1  1
0.958736439556  0.064244642197  0.499074651684  1  1  1
0.958736439556  0.064244642198  0.832407985017  1  1  1
0.043074696306  0.064259341235  0.055184052550  1  1  1
0.043074696306  0.064259341235  0.388517385884  1  1  1
0.043074696306  0.064259341236  0.721850719217  1  1  1
0.376408029639  0.064259341235  0.055184052551  1  1  1
0.376408029639  0.064259341235  0.388517385884  1  1  1
0.376408029639  0.064259341236  0.721850719217  1  1  1
0.709741362973  0.064259341235  0.055184052550  1  1  1
0.709741362973  0.064259341235  0.388517385884  1  1  1
0.709741362973  0.064259341236  0.721850719217  1  1  1
0.041426160083  0.064183295569  0.276614796793  1  1  1
0.041426160083  0.064183295569  0.609948130126  1  1  1
0.041426160083  0.064183295568  0.943281463460  1  1  1
0.374759493416  0.064183295569  0.276614796793  1  1  1
0.374759493416  0.064183295569  0.609948130126  1  1  1
0.374759493416  0.064183295569  0.943281463460  1  1  1
0.708092826750  0.064183295569  0.276614796792  1  1  1
0.708092826750  0.064183295569  0.609948130125  1  1  1
0.708092826750  0.064183295569  0.943281463459  1  1  1
0.041414598458  0.064198519605  0.165820055598  1  1  1
0.041414598458  0.064198519606  0.499153388931  1  1  1
0.041414598458  0.064198519606  0.832486722265  1  1  1
0.374747931791  0.064198519605  0.165820055598  1  1  1
0.374747931791  0.064198519606  0.499153388931  1  1  1
0.374747931791  0.064198519606  0.832486722265  1  1  1
0.708081265125  0.064198519605  0.165820055598  1  1  1
0.708081265125  0.064198519606  0.499153388931  1  1  1
0.708081265125  0.064198519606  0.832486722265  1  1  1
0.205773405771  0.064459386861  0.055306207969  1  1  1
0.205773405771  0.064459386861  0.388639541303  1  1  1
0.205773405771  0.064459386862  0.721972874636  1  1  1
0.539106739104  0.064459386861  0.055306207969  1  1  1
0.539106739104  0.064459386860  0.388639541303  1  1  1
0.539106739104  0.064459386862  0.721972874636  1  1  1
0.872440072437  0.064459386862  0.055306207970  1  1  1
0.872440072437  0.064459386861  0.388639541303  1  1  1
0.872440072437  0.064459386862  0.721972874636  1  1  1
0.207844028729  0.064365399253  0.277827558846  1  1  1
0.207844028729  0.064365399253  0.611160892179  1  1  1
0.207844028729  0.064365399253  0.944494225513  1  1  1
0.541177362062  0.064365399253  0.277827558846  1  1  1
0.541177362062  0.064365399253  0.611160892179  1  1  1
0.541177362062  0.064365399253  0.944494225513  1  1  1
0.874510695395  0.064365399254  0.277827558846  1  1  1
0.874510695395  0.064365399254  0.611160892179  1  1  1
0.874510695395  0.064365399253  0.944494225513  1  1  1
0.207960013356  0.066821528910  0.167361394909  1  1  1
0.207960013356  0.066821528909  0.500694728242  1  1  1
0.207960013356  0.066821528911  0.834028061576  1  1  1
0.541293346689  0.066821528910  0.167361394909  1  1  1
0.541293346689  0.066821528909  0.500694728242  1  1  1
0.541293346689  0.066821528910  0.834028061576  1  1  1
0.874626680023  0.066821528910  0.167361394909  1  1  1
0.874626680023  0.066821528909  0.500694728242  1  1  1
0.874626680023  0.066821528911  0.834028061576  1  1  1
0.000000000000  0.130439996734  0.000000000000  0  0  0
0.000000000000  0.130439996734  0.333333333334  0  0  0
0.000000000000  0.130439996734  0.666666666666  0  0  0
0.333333333334  0.130439996734  0.000000000000  0  0  0
0.333333333334  0.130439996734  0.333333333334  0  0  0
0.333333333334  0.130439996734  0.666666666666  0  0  0
0.666666666666  0.130439996734  0.000000000000  0  0  0
0.666666666666  0.130439996734  0.333333333334  0  0  0
0.666666666666  0.130439996734  0.666666666666  0  0  0
0.000000000000  0.130439996734  0.222223341380  0  0  0
0.000000000000  0.130439996734  0.555556674713  0  0  0
0.000000000000  0.130439996734  0.888890008047  0  0  0
0.333333333334  0.130439996734  0.222223341380  0  0  0
0.333333333334  0.130439996734  0.555556674713  0  0  0
0.333333333334  0.130439996734  0.888890008047  0  0  0
0.666666666666  0.130439996734  0.222223341380  0  0  0
0.666666666666  0.130439996734  0.555556674713  0  0  0
0.666666666666  0.130439996734  0.888890008047  0  0  0
0.000000000000  0.130439996734  0.111110001801  0  0  0
0.000000000000  0.130439996734  0.444443335133  0  0  0
0.000000000000  0.130439996734  0.777776668467  0  0  0
0.333333333334  0.130439996734  0.111110001801  0  0  0
0.333333333334  0.130439996734  0.444443335133  0  0  0
0.333333333334  0.130439996734  0.777776668467  0  0  0
0.666666666666  0.130439996734  0.111110001801  0  0  0
0.666666666666  0.130439996734  0.444443335133  0  0  0
0.666666666666  0.130439996734  0.777776668467  0  0  0
0.166666666675  0.130439996734  0.000000000000  0  0  0
0.166666666675  0.130439996734  0.333333333334  0  0  0
0.166666666675  0.130439996734  0.666666666666  0  0  0
0.500000000009  0.130439996734  0.000000000000  0  0  0
0.500000000009  0.130439996734  0.333333333334  0  0  0
0.500000000009  0.130439996734  0.666666666666  0  0  0
0.833333333341  0.130439996734  0.000000000000  0  0  0
0.833333333341  0.130439996734  0.333333333334  0  0  0
0.833333333341  0.130439996734  0.666666666666  0  0  0
0.166666666675  0.130439996734  0.222223341380  0  0  0
0.166666666675  0.130439996734  0.555556674713  0  0  0
0.166666666675  0.130439996734  0.888890008047  0  0  0
0.500000000009  0.130439996734  0.222223341380  0  0  0
0.500000000009  0.130439996734  0.555556674713  0  0  0
0.500000000009  0.130439996734  0.888890008047  0  0  0
0.833333333341  0.130439996734  0.222223341380  0  0  0
0.833333333341  0.130439996734  0.555556674713  0  0  0
0.833333333341  0.130439996734  0.888890008047  0  0  0
0.166666666675  0.130439996734  0.111110001801  0  0  0
0.166666666675  0.130439996734  0.444443335133  0  0  0
0.166666666675  0.130439996734  0.777776668467  0  0  0
0.500000000009  0.130439996734  0.111110001801  0  0  0
0.500000000009  0.130439996734  0.444443335133  0  0  0
0.500000000009  0.130439996734  0.777776668467  0  0  0
0.833333333341  0.130439996734  0.111110001801  0  0  0
0.833333333341  0.130439996734  0.444443335133  0  0  0
0.833333333341  0.130439996734  0.777776668467  0  0  0
0.083333333327  0.130439996734  0.000000000000  0  0  0
0.083333333327  0.130439996734  0.333333333334  0  0  0
0.083333333327  0.130439996734  0.666666666666  0  0  0
0.416666666661  0.130439996734  0.000000000000  0  0  0
0.416666666661  0.130439996734  0.333333333334  0  0  0
0.416666666661  0.130439996734  0.666666666666  0  0  0
0.749999999993  0.130439996734  0.000000000000  0  0  0
0.749999999993  0.130439996734  0.333333333334  0  0  0
0.749999999993  0.130439996734  0.666666666666  0  0  0
0.083333333327  0.130439996734  0.222223341380  0  0  0
0.083333333327  0.130439996734  0.555556674713  0  0  0
0.083333333327  0.130439996734  0.888890008047  0  0  0
0.416666666661  0.130439996734  0.222223341380  0  0  0
0.416666666661  0.130439996734  0.555556674713  0  0  0
0.416666666661  0.130439996734  0.888890008047  0  0  0
0.749999999993  0.130439996734  0.222223341380  0  0  0
0.749999999993  0.130439996734  0.555556674713  0  0  0
0.749999999993  0.130439996734  0.888890008047  0  0  0
0.083333333327  0.130439996734  0.111110001801  0  0  0
0.083333333327  0.130439996734  0.444443335133  0  0  0
0.083333333327  0.130439996734  0.777776668467  0  0  0
0.416666666661  0.130439996734  0.111110001801  0  0  0
0.416666666661  0.130439996734  0.444443335133  0  0  0
0.416666666661  0.130439996734  0.777776668467  0  0  0
0.749999999993  0.130439996734  0.111110001801  0  0  0
0.749999999993  0.130439996734  0.444443335133  0  0  0
0.749999999993  0.130439996734  0.777776668467  0  0  0
0.250000000089  0.130439996734  0.000000000000  0  0  0
0.250000000089  0.130439996734  0.333333333334  0  0  0
0.250000000089  0.130439996734  0.666666666666  0  0  0
0.583333333421  0.130439996734  0.000000000000  0  0  0
0.583333333421  0.130439996734  0.333333333334  0  0  0
0.583333333421  0.130439996734  0.666666666666  0  0  0
0.916666666755  0.130439996734  0.000000000000  0  0  0
0.916666666755  0.130439996734  0.333333333334  0  0  0
0.916666666755  0.130439996734  0.666666666666  0  0  0
0.250000000089  0.130439996734  0.222223341380  0  0  0
0.250000000089  0.130439996734  0.555556674713  0  0  0
0.250000000089  0.130439996734  0.888890008047  0  0  0
0.583333333421  0.130439996734  0.222223341380  0  0  0
0.583333333421  0.130439996734  0.555556674713  0  0  0
0.583333333421  0.130439996734  0.888890008047  0  0  0
0.916666666755  0.130439996734  0.222223341380  0  0  0
0.916666666755  0.130439996734  0.555556674713  0  0  0
0.916666666755  0.130439996734  0.888890008047  0  0  0
0.250000000089  0.130439996734  0.111110001801  0  0  0
0.250000000089  0.130439996734  0.444443335133  0  0  0
0.250000000089  0.130439996734  0.777776668467  0  0  0
0.583333333421  0.130439996734  0.111110001801  0  0  0
0.583333333421  0.130439996734  0.444443335133  0  0  0
0.583333333421  0.130439996734  0.777776668467  0  0  0
0.916666666755  0.130439996734  0.111110001801  0  0  0
0.916666666755  0.130439996734  0.444443335133  0  0  0
0.916666666755  0.130439996734  0.777776668467  0  0  0
0.126117016268  0.195846034632  0.056730197955  1  1  1
0.126117016268  0.195846034633  0.390063531288  1  1  1
0.126117016268  0.195846034632  0.723396864621  1  1  1
0.459450349600  0.195846034632  0.056730197955  1  1  1
0.459450349600  0.195846034633  0.390063531288  1  1  1
0.459450349601  0.195846034632  0.723396864622  1  1  1
0.792783682935  0.195846034632  0.056730197955  1  1  1
0.792783682935  0.195846034633  0.390063531289  1  1  1
0.792783682935  0.195846034632  0.723396864622  1  1  1
0.125097119632  0.196014004634  0.277607559354  1  1  1
0.125097119632  0.196014004634  0.610940892687  1  1  1
0.125097119632  0.196014004635  0.944274226021  1  1  1
0.458430452965  0.196014004634  0.277607559354  1  1  1
0.458430452966  0.196014004634  0.610940892687  1  1  1
0.458430452966  0.196014004635  0.944274226021  1  1  1
0.791763786299  0.196014004634  0.277607559354  1  1  1
0.791763786299  0.196014004634  0.610940892687  1  1  1
0.791763786299  0.196014004635  0.944274226021  1  1  1
0.125332868023  0.198999214958  0.163473452238  1  1  1
0.125332868023  0.198999214959  0.496806785571  1  1  1
0.125332868023  0.198999214958  0.830140118905  1  1  1
0.458666201356  0.198999214958  0.163473452238  1  1  1
0.458666201356  0.198999214959  0.496806785571  1  1  1
0.458666201356  0.198999214958  0.830140118905  1  1  1
0.791999534689  0.198999214958  0.163473452238  1  1  1
0.791999534689  0.198999214959  0.496806785571  1  1  1
0.791999534689  0.198999214958  0.830140118905  1  1  1
0.292164953928  0.196281693019  0.054795692917  1  1  1
0.292164953928  0.196281693020  0.388129026250  1  1  1
0.292164953928  0.196281693019  0.721462359584  1  1  1
0.625498287262  0.196281693019  0.054795692917  1  1  1
0.625498287262  0.196281693020  0.388129026251  1  1  1
0.625498287262  0.196281693019  0.721462359584  1  1  1
0.958831620595  0.196281693019  0.054795692917  1  1  1
0.958831620595  0.196281693020  0.388129026250  1  1  1
0.958831620595  0.196281693019  0.721462359584  1  1  1
0.291871052566  0.196248028061  0.277634150224  1  1  1
0.291871052566  0.196248028062  0.610967483556  1  1  1
0.291871052566  0.196248028062  0.944300816890  1  1  1
0.625204385899  0.196248028061  0.277634150224  1  1  1
0.625204385900  0.196248028062  0.610967483556  1  1  1
0.625204385900  0.196248028062  0.944300816891  1  1  1
0.958537719232  0.196248028061  0.277634150224  1  1  1
0.958537719233  0.196248028062  0.610967483556  1  1  1
0.958537719232  0.196248028062  0.944300816890  1  1  1
0.291999435014  0.196467297042  0.165748946712  1  1  1
0.291999435014  0.196467297042  0.499082280045  1  1  1
0.291999435014  0.196467297041  0.832415613379  1  1  1
0.625332768348  0.196467297043  0.165748946712  1  1  1
0.625332768348  0.196467297042  0.499082280046  1  1  1
0.625332768348  0.196467297042  0.832415613379  1  1  1
0.958666101681  0.196467297042  0.165748946712  1  1  1
0.958666101681  0.196467297042  0.499082280045  1  1  1
0.958666101681  0.196467297041  0.832415613379  1  1  1
0.042965647283  0.196406931808  0.055188589961  1  1  1
0.042965647283  0.196406931809  0.388521923294  1  1  1
0.042965647283  0.196406931808  0.721855256627  1  1  1
0.376298980616  0.196406931809  0.055188589961  1  1  1
0.376298980616  0.196406931809  0.388521923294  1  1  1
0.376298980616  0.196406931808  0.721855256627  1  1  1
0.709632313950  0.196406931808  0.055188589961  1  1  1
0.709632313950  0.196406931809  0.388521923294  1  1  1
0.709632313950  0.196406931807  0.721855256627  1  1  1
0.041449859150  0.196458146949  0.276684353167  1  1  1
0.041449859150  0.196458146950  0.610017686501  1  1  1
0.041449859150  0.196458146950  0.943351019835  1  1  1
0.374783192483  0.196458146949  0.276684353167  1  1  1
0.374783192483  0.196458146950  0.610017686501  1  1  1
0.374783192483  0.196458146950  0.943351019835  1  1  1
0.708116525817  0.196458146949  0.276684353167  1  1  1
0.708116525817  0.196458146949  0.610017686500  1  1  1
0.708116525817  0.196458146949  0.943351019834  1  1  1
0.041478495584  0.196502823803  0.165802414858  1  1  1
0.041478495583  0.196502823803  0.499135748191  1  1  1
0.041478495583  0.196502823803  0.832469081524  1  1  1
0.374811828917  0.196502823803  0.165802414858  1  1  1
0.374811828917  0.196502823803  0.499135748191  1  1  1
0.374811828917  0.196502823803  0.832469081524  1  1  1
0.708145162251  0.196502823802  0.165802414857  1  1  1
0.708145162251  0.196502823803  0.499135748191  1  1  1
0.708145162251  0.196502823802  0.832469081524  1  1  1
0.205763942807  0.196167756422  0.055351976871  1  1  1
0.205763942807  0.196167756423  0.388685310204  1  1  1
0.205763942807  0.196167756422  0.722018643537  1  1  1
0.539097276141  0.196167756422  0.055351976871  1  1  1
0.539097276141  0.196167756423  0.388685310204  1  1  1
0.539097276141  0.196167756422  0.722018643537  1  1  1
0.872430609474  0.196167756422  0.055351976871  1  1  1
0.872430609474  0.196167756423  0.388685310204  1  1  1
0.872430609474  0.196167756422  0.722018643537  1  1  1
0.207875886286  0.196398576434  0.277806077355  1  1  1
0.207875886286  0.196398576434  0.611139410687  1  1  1
0.207875886286  0.196398576435  0.944472744022  1  1  1
0.541209219619  0.196398576434  0.277806077355  1  1  1
0.541209219619  0.196398576435  0.611139410687  1  1  1
0.541209219619  0.196398576435  0.944472744021  1  1  1
0.874542552953  0.196398576434  0.277806077354  1  1  1
0.874542552953  0.196398576434  0.611139410687  1  1  1
0.874542552952  0.196398576434  0.944472744021  1  1  1
0.207970709945  0.196006045186  0.166035156510  1  1  1
0.207970709945  0.196006045186  0.499368489843  1  1  1
0.207970709945  0.196006045186  0.832701823176  1  1  1
0.541304043278  0.196006045186  0.166035156510  1  1  1
0.541304043278  0.196006045186  0.499368489843  1  1  1
0.541304043278  0.196006045186  0.832701823177  1  1  1
0.874637376611  0.196006045186  0.166035156510  1  1  1
0.874637376611  0.196006045185  0.499368489843  1  1  1
0.874637376611  0.196006045186  0.832701823176  1  1  1
0.000654341824  0.245005372856  0.007524366283  1  1  1
0.000654341824  0.245005372855  0.340857699616  1  1  1
0.000654341824  0.245005372856  0.674191032950  1  1  1
0.333987675157  0.245005372855  0.007524366283  1  1  1
0.333987675157  0.245005372855  0.340857699615  1  1  1
0.333987675157  0.245005372856  0.674191032950  1  1  1
0.667321008491  0.245005372856  0.007524366283  1  1  1
0.667321008491  0.245005372855  0.340857699615  1  1  1
0.667321008491  0.245005372856  0.674191032950  1  1  1
0.332436807235  0.245003692679  0.229938516787  1  1  1
0.332436807235  0.245003692680  0.563271850120  1  1  1
0.332436807235  0.245003692679  0.896605183454  1  1  1
0.665770140568  0.245003692679  0.229938516787  1  1  1
0.665770140569  0.245003692680  0.563271850120  1  1  1
0.665770140569  0.245003692679  0.896605183454  1  1  1
0.999103473902  0.245003692680  0.229938516787  1  1  1
0.999103473902  0.245003692680  0.563271850120  1  1  1
0.999103473902  0.245003692680  0.896605183454  1  1  1
0.001158431587  0.244845306572  0.117918735983  1  1  1
0.001158431586  0.244845306572  0.451252069317  1  1  1
0.001158431587  0.244845306572  0.784585402650  1  1  1
0.334491764920  0.244845306572  0.117918735984  1  1  1
0.334491764920  0.244845306572  0.451252069317  1  1  1
0.334491764920  0.244845306572  0.784585402651  1  1  1
0.667825098254  0.244845306572  0.117918735984  1  1  1
0.667825098253  0.244845306572  0.451252069317  1  1  1
0.667825098253  0.244845306572  0.784585402651  1  1  1
0.166002039175  0.245066533752  0.009044248436  1  1  1
0.166002039175  0.245066533752  0.342377581769  1  1  1
0.166002039175  0.245066533753  0.675710915103  1  1  1
0.499335372508  0.245066533752  0.009044248437  1  1  1
0.499335372508  0.245066533752  0.342377581770  1  1  1
0.499335372508  0.245066533753  0.675710915104  1  1  1
0.832668705841  0.245066533752  0.009044248437  1  1  1
0.832668705841  0.245066533752  0.342377581770  1  1  1
0.832668705841  0.245066533752  0.675710915103  1  1  1
0.165244719197  0.248640093467  0.225611392235  1  1  1
0.165244719197  0.248640093467  0.558944725569  1  1  1
0.165244719198  0.248640093467  0.892278058902  1  1  1
0.498578052531  0.248640093467  0.225611392235  1  1  1
0.498578052530  0.248640093467  0.558944725569  1  1  1
0.498578052531  0.248640093467  0.892278058902  1  1  1
0.831911385863  0.248640093467  0.225611392235  1  1  1
0.831911385863  0.248640093466  0.558944725570  1  1  1
0.831911385864  0.248640093467  0.892278058902  1  1  1
0.163072590044  0.279810718105  0.101232277180  1  1  1
0.163072590044  0.279810718104  0.434565610512  1  1  1
0.163072590044  0.279810718105  0.767898943846  1  1  1
0.496405923377  0.279810718105  0.101232277180  1  1  1
0.496405923377  0.279810718104  0.434565610512  1  1  1
0.496405923377  0.279810718105  0.767898943846  1  1  1
0.829739256711  0.279810718104  0.101232277180  1  1  1
0.829739256711  0.279810718103  0.434565610513  1  1  1
0.829739256711  0.279810718104  0.767898943846  1  1  1
0.083447885132  0.244827187878  0.007535073035  1  1  1
0.083447885132  0.244827187878  0.340868406369  1  1  1
0.083447885132  0.244827187878  0.674201739702  1  1  1
0.416781218465  0.244827187878  0.007535073035  1  1  1
0.416781218465  0.244827187877  0.340868406369  1  1  1
0.416781218465  0.244827187878  0.674201739703  1  1  1
0.750114551799  0.244827187877  0.007535073035  1  1  1
0.750114551799  0.244827187877  0.340868406368  1  1  1
0.750114551799  0.244827187878  0.674201739703  1  1  1
0.081220663603  0.244736993773  0.228265084001  1  1  1
0.081220663603  0.244736993773  0.561598417334  1  1  1
0.081220663603  0.244736993772  0.894931750667  1  1  1
0.414553996937  0.244736993772  0.228265084001  1  1  1
0.414553996936  0.244736993773  0.561598417334  1  1  1
0.414553996936  0.244736993772  0.894931750667  1  1  1
0.747887330270  0.244736993772  0.228265084001  1  1  1
0.747887330270  0.244736993773  0.561598417334  1  1  1
0.747887330270  0.244736993772  0.894931750667  1  1  1
0.083643163137  0.248265927722  0.120175733066  1  1  1
0.083643163137  0.248265927722  0.453509066399  1  1  1
0.083643163137  0.248265927722  0.786842399733  1  1  1
0.416976496470  0.248265927722  0.120175733066  1  1  1
0.416976496471  0.248265927722  0.453509066399  1  1  1
0.416976496471  0.248265927722  0.786842399733  1  1  1
0.750309829804  0.248265927722  0.120175733066  1  1  1
0.750309829804  0.248265927721  0.453509066399  1  1  1
0.750309829804  0.248265927721  0.786842399732  1  1  1
0.249871923693  0.244892066403  0.007682713196  1  1  1
0.249871923693  0.244892066403  0.341016046529  1  1  1
0.249871923693  0.244892066404  0.674349379863  1  1  1
0.583205257026  0.244892066403  0.007682713196  1  1  1
0.583205257026  0.244892066403  0.341016046529  1  1  1
0.583205257026  0.244892066404  0.674349379863  1  1  1
0.916538590360  0.244892066403  0.007682713196  1  1  1
0.916538590360  0.244892066403  0.341016046529  1  1  1
0.916538590360  0.244892066403  0.674349379863  1  1  1
0.250088466059  0.244845124248  0.229788820727  1  1  1
0.250088466059  0.244845124247  0.563122154061  1  1  1
0.250088466059  0.244845124247  0.896455487393  1  1  1
0.583421799392  0.244845124247  0.229788820726  1  1  1
0.583421799392  0.244845124247  0.563122154060  1  1  1