%BLOCK LATTICE_CART
9.590818000000    0.000000000000    0.000000000000    
0.000000000000    9.590818000000    0.000000000000    
0.000000000000    0.000000000000    9.590818000000    
%END BLOCK LATTICE_CART
%BLOCK POSITIONS_FRAC
Li    0.125000000000    0.625000000000    0.625000000000
Li    0.375000000000    0.875000000000    0.625000000000
Li    0.375000000000    0.625000000000    0.875000000000
Li    0.125000000000    0.875000000000    0.875000000000
Li    0.125000000000    0.125000000000    0.125000000000
Li    0.375000000000    0.375000000000    0.125000000000
Li    0.375000000000    0.125000000000    0.375000000000
Li    0.125000000000    0.375000000000    0.375000000000
Li    0.625000000000    0.625000000000    0.125000000000
Li    0.875000000000    0.875000000000    0.125000000000
Li    0.875000000000    0.625000000000    0.375000000000
Li    0.625000000000    0.875000000000    0.375000000000
Li    0.625000000000    0.125000000000    0.625000000000
Li    0.875000000000    0.375000000000    0.625000000000
Li    0.875000000000    0.125000000000    0.875000000000
Li    0.625000000000    0.375000000000    0.875000000000
Al    0.398473000000    0.898473000000    0.898473000000
Al    0.101527000000    0.101527000000    0.398473000000
Al    0.101527000000    0.898473000000    0.601527000000
Al    0.148473000000    0.148473000000    0.851527000000
Al    0.351527000000    0.351527000000    0.851527000000
Al    0.398473000000    0.101527000000    0.101527000000
Al    0.148473000000    0.351527000000    0.648473000000
Al    0.351527000000    0.148473000000    0.648473000000
Al    0.398473000000    0.398473000000    0.398473000000
Al    0.101527000000    0.601527000000    0.898473000000
Al    0.101527000000    0.398473000000    0.101527000000
Al    0.148473000000    0.648473000000    0.351527000000
Al    0.351527000000    0.851527000000    0.351527000000
Al    0.398473000000    0.601527000000    0.601527000000
Al    0.148473000000    0.851527000000    0.148473000000
Al    0.351527000000    0.648473000000    0.148473000000
Al    0.898473000000    0.898473000000    0.398473000000
Al    0.601527000000    0.101527000000    0.898473000000
Al    0.601527000000    0.898473000000    0.101527000000
Al    0.648473000000    0.148473000000    0.351527000000
Al    0.851527000000    0.351527000000    0.351527000000
Al    0.898473000000    0.101527000000    0.601527000000
Al    0.648473000000    0.351527000000    0.148473000000
Al    0.851527000000    0.148473000000    0.148473000000
Al    0.898473000000    0.398473000000    0.898473000000
Al    0.601527000000    0.601527000000    0.398473000000
Al    0.601527000000    0.398473000000    0.601527000000
Al    0.648473000000    0.648473000000    0.851527000000
Al    0.851527000000    0.851527000000    0.851527000000
Al    0.898473000000    0.601527000000    0.101527000000
Al    0.648473000000    0.851527000000    0.648473000000
Al    0.851527000000    0.648473000000    0.648473000000
%END BLOCK POSITIONS_FRAC
%BLOCK SPECIES_POT
Li li.gga.recpot
Al al.gga.recpot
%END BLOCK SPECIES_POT
