ATOMIC_SPECIES
Al 26.981539 Al_ONCV_PBE-1.2.upf

LATTICE_CONSTANT
7.4984327225523  // add lattice constant

LATTICE_VECTORS
0.707106781187    0.000000000000    0.000000000000    
0.353553390593    0.612372435696    0.000000000000    
0.000000000000    0.000000000000    12.701705922171765    

ATOMIC_POSITIONS
Direct

Al
0.0
22
-1.6666654168E-11 -1.6666654168E-11  1.9893037562E-04 0 0 1
 3.3333333332E-01  3.3333333332E-01  4.5447790230E-02 0 0 1
 6.6666666665E-01  6.6666666665E-01  9.0971827417E-02 0 0 1
-1.6666649542E-11 -1.6666649542E-11  1.3612916604E-01 0 0 1
 3.3333333332E-01  3.3333333332E-01  1.8159385764E-01 0 0 1
-1.6666649542E-11 -1.6666649542E-11  2.2749705146E-01 0 0 1
 3.3333333332E-01  3.3333333332E-01  2.7296174306E-01 0 0 1
 6.6666666665E-01  6.6666666665E-01  3.1811908168E-01 0 0 1
-1.6666654168E-11 -1.6666654168E-11  3.6364311887E-01 0 0 1
 3.3333333332E-01  3.3333333332E-01  4.0889197872E-01 0 0 1
 6.6666666665E-01  6.6666666665E-01  4.5454545455E-01 0 0 1
 3.3333333332E-01  3.3333333332E-01  5.0019893038E-01 0 0 1
-1.6666654168E-11 -1.6666654168E-11  5.4544779023E-01 0 0 1
 6.6666666665E-01  6.6666666665E-01  5.9097182742E-01 0 0 1
 3.3333333332E-01  3.3333333332E-01  6.3612916604E-01 0 0 1
-1.6666649542E-11 -1.6666649542E-11  6.8159385764E-01 0 0 1
 3.3333333332E-01  3.3333333332E-01  7.2749705146E-01 0 0 1
-1.6666649542E-11 -1.6666649542E-11  7.7296174306E-01 0 0 1
 6.6666666665E-01  6.6666666665E-01  8.1811908168E-01 0 0 1
 3.3333333332E-01  3.3333333332E-01  8.6364311887E-01 0 0 1
-1.6666654168E-11 -1.6666654168E-11  9.0889197872E-01 0 0 1
 6.6666666665E-01  6.6666666665E-01  9.5454545455E-01 0 0 1
