%BLOCK LATTICE_CART
   0.001271310348189   2.199308094462290   2.199308087766404
   2.199308069686126   0.001271278271834   2.199308095024362
   2.199308070169266   2.199308102203387   0.001271284980261
%END BLOCK LATTICE_CART
%BLOCK POSITIONS_FRAC
    Mg   0.000000000000000   0.000000000000000   0.000000000000000
%END BLOCK POSITIONS_FRAC
%BLOCK SPECIES_POT
    Mg mg.lda.recpot                                                                          
%END BLOCK SPECIES_POT
