ATOMIC_SPECIES
Li 3 li.gga.psp.1 blps

LATTICE_CONSTANT
5.1352801370647665  // add lattice constant

LATTICE_VECTORS
1.000000000000    0.000000000000    0.000000000000    
0.000000000000    1.000000000000    0.000000000000    
0.000000000000    0.000000000000    1.000000000000    

ATOMIC_POSITIONS
Direct

Li
0.0
1
    0.000000000000    0.000000000000    0.000000000000 1 1 1
