ATOMIC_SPECIES
Al 27 al.lda.lps

LATTICE_CONSTANT
7.50241114482

LATTICE_VECTORS
0.707106781187 0 0 #latvec1
0.353553390593 0.612372435696 0 #latvec2
0 0 11.5470053838 #latvec3

ATOMIC_POSITIONS
Direct

Al #label
0 #magnetism
20 #number of atoms
0  0  1.01192821415e-05  m  0  0  1
0.333333333332  0.333333333332  0.0497727697035  m  0  0  1
0.666666666668  0.666666666668  0.099866048686  m  0  0  1
0  0  0.14984403264  m  0  0  1
0.333333333332  0.333333333332  0.199901926291  m  0  0  1
0.700000000001  0.700000000001  0.250144175312  m  0  0  1
0.0333333333328  0.0333333333328  0.300124861823  m  0  0  1
0.366666666667  0.366666666667  0.350217916275  m  0  0  1
0.700000000001  0.700000000001  0.399981537208  m  0  0  1
0.0333333333328  0.0333333333328  0.450013187572  m  0  0  1
0.700000000001  0.700000000001  0.500042923794  m  0  0  1
0.366666666667  0.366666666667  0.549800790865  m  0  0  1
0.0333333333328  0.0333333333328  0.599894442439  m  0  0  1
0.700000000001  0.700000000001  0.649862068076  m  0  0  1
0.333333333332  0.333333333332  0.700100861157  m  0  0  1
0  0  0.750154092004  m  0  0  1
0.666666666668  0.666666666668  0.800122482878  m  0  0  1
0.333333333332  0.333333333332  0.850207124318  m  0  0  1
0  0  0.899958414476  m  0  0  1
0.666666666668  0.666666666668  0.949980225201  m  0  0  1
