ATOMIC_SPECIES
Al 26.981 al.gga.psp blps
Sb 121.76 sb.gga.psp blps

LATTICE_CONSTANT
1.8882837830175598  // add lattice constant

LATTICE_VECTORS
2.180909539569    -3.777446129245    0.000000000000    
2.180909539569    3.777446129245    0.000000000000    
0.000000000000    0.000000000000    7.175696500000    

ATOMIC_POSITIONS
Direct

Al
0.0
2
    0.666666666667    0.333333333333    0.500378270000 1 1 1
    0.333333333333    0.666666666667    0.000378270000 1 1 1
Sb
0.0
2
    0.666666666667    0.333333333333    0.874721730000 1 1 1
    0.333333333333    0.666666666667    0.374721730000 1 1 1
