%BLOCK LATTICE_CART
2.792862521596    0.000000000000    0.000000000000    
-1.396431260798    2.418689892980    0.000000000000    
0.000000000000    0.000000000000    4.604765635839    
%END BLOCK LATTICE_CART
%BLOCK POSITIONS_FRAC
Al    0.000000000000    0.000000000000    0.000000000000
Al    0.666666666667    0.333333333333    0.500000000000
%END BLOCK POSITIONS_FRAC
%BLOCK SPECIES_POT
Al al.lda.recpot
%END BLOCK SPECIES_POT
