%BLOCK LATTICE_CART
   2.806843720900000   0.000000000000000   0.000000000000000
   1.403421860450000   2.430797966752238   0.000000000000000
   0.000000000000003   0.000000000000002  46.009786296887071
%END BLOCK LATTICE_CART
%BLOCK POSITIONS_FRAC
    Al   0.000000000000000   0.000000000000000   0.000279649731945
    Al   0.333333333300000   0.333333333300000   0.049901387088260
    Al   0.666666666700000   0.666666666700000   0.099650113188348
    Al   0.000000000000000   0.000000000000000   0.149321261529515
    Al   0.333333333300000   0.333333333300000   0.199503547891414
    Al   0.000000000000000   0.000000000000000   0.250373020301580
    Al   0.333333333300000   0.333333333300000   0.300500974948699
    Al   0.666666666700000   0.666666666700000   0.350167929964881
    Al   0.000000000000000   0.000000000000000   0.399780663665846
    Al   0.333333333300000   0.333333333300000   0.449998331981269
    Al   0.000000000000000   0.000000000000000   0.500216240867743
    Al   0.666666666700000   0.666666666700000   0.549829471153259
    Al   0.333333333300000   0.333333333300000   0.599497146788573
    Al   0.000000000000000   0.000000000000000   0.649625902351414
    Al   0.333333333300000   0.333333333300000   0.700496354142846
    Al   0.000000000000000   0.000000000000000   0.750679633107116
    Al   0.666666666700000   0.666666666700000   0.800351755803670
    Al   0.333333333300000   0.333333333300000   0.850101240525076
    Al   0.000000000000000   0.000000000000000   0.899723344529732
    Al   0.666666666700000   0.666666666700000   0.950001569326318
%END BLOCK POSITIONS_FRAC
%BLOCK SPECIES_POT
    Al al.lda.recpot                                                                          
%END BLOCK SPECIES_POT
%BLOCK ION_OPTIMIZATION
           0           0           1
           0           0           1
           0           0           1
           0           0           1
           0           0           1
           0           0           1
           0           0           1
           0           0           1
           0           0           1
           0           0           1
           0           0           1
           0           0           1
           0           0           1
           0           0           1
           0           0           1
           0           0           1
           0           0           1
           0           0           1
           0           0           1
           0           0           1
%END BLOCK ION_OPTIMIZATION
