INPUT_PARAMETERS
calculation scf
ntype 2
ecutwfc 90.000000
scf_thr 5.000000e-07
scf_nmax 50
basis_type pw
dft_functional SCAN
gamma_only 1
mixing_type pulay
mixing_beta 0.400000
smearing_method fixed
smearing_sigma 0.000000
cal_force 1
