ATOMIC_SPECIES
C 12 /home/mhchen_pkuhpc/mhchen_cls/lustre2/5_liurenxi/03a01_abacus-lcao-scan/pp/SG15_ONCV_v1.0_upf/C_ONCV_PBE-1.0.upf
H 1 /home/mhchen_pkuhpc/mhchen_cls/lustre2/5_liurenxi/03a01_abacus-lcao-scan/pp/SG15_ONCV_v1.0_upf/H_ONCV_PBE-1.0.upf
O 16 /home/mhchen_pkuhpc/mhchen_cls/lustre2/5_liurenxi/03a01_abacus-lcao-scan/pp/SG15_ONCV_v1.0_upf/O_ONCV_PBE-1.0.upf

LATTICE_CONSTANT
1.8897161646321

LATTICE_VECTORS
20 0 0
0 20 0
0 0 20

NUMERICAL_ORBITAL
/home/mhchen_pkuhpc/mhchen_cls/lustre2/5_liurenxi/03a01_abacus-lcao-scan/orb/Orb_DZP_E100_Full/C/C_gga_10au_100Ry_2s2p1d.orb
/home/mhchen_pkuhpc/mhchen_cls/lustre2/5_liurenxi/03a01_abacus-lcao-scan/orb/Orb_DZP_E100_Full/H/H_gga_10au_100Ry_2s1p.orb
/home/mhchen_pkuhpc/mhchen_cls/lustre2/5_liurenxi/03a01_abacus-lcao-scan/orb/Orb_DZP_E100_Full/O/O_gga_10au_100Ry_2s2p1d.orb

ATOMIC_POSITIONS
Cartesian    # Cartesian(Unit is LATTICE_CONSTANT)
C
0.0
6
0.780612 -0.609888 -1.207543 m 0 0 0 
0.478404 0.751041 -1.207904 m 0 0 0 
0.327659 1.431857 0.000000 m 0 0 0 
0.478404 0.751041 1.207904 m 0 0 0 
0.780612 -0.609888 1.207543 m 0 0 0 
0.932151 -1.289961 0.000000 m 0 0 0 
H
0.0
8
0.896669 -1.137605 -2.144148 m 0 0 0 
0.357390 1.278209 -2.144055 m 0 0 0 
0.091859 2.487141 0.000000 m 0 0 0 
0.357390 1.278209 2.144055 m 0 0 0 
0.896669 -1.137605 2.144148 m 0 0 0 
1.169006 -2.345167 0.000000 m 0 0 0 
-2.622911 -1.219083 0.000000 m 0 0 0 
-1.901510 0.097911 0.000000 m 0 0 0 
O
0.0
1
-2.788527 -0.274485 0.000000 m 0 0 0 
