ATOMIC_SPECIES
In 114.8180 in.gga.psp blps
As  74.9220 as.gga.psp blps

LATTICE_CONSTANT
1.8897259886

LATTICE_VECTORS
        2.1742273347       -3.7658722109        0.0000000000
        2.1742273347        3.7658722109        0.0000000000
        0.0000000000       -0.0000000000        7.1503451442

ATOMIC_POSITIONS
Direct

In #label
0.0000   #magnetism
2 #number of atoms
        0.6666666667        0.3333333333        0.5004631990 m 1 1 1
        0.3333333333        0.6666666667        0.0004631990 m 1 1 1

As #label
0.0000   #magnetism
2 #number of atoms
        0.6666666667        0.3333333333        0.8750368010 m 1 1 1
        0.3333333333        0.6666666667        0.3750368010 m 1 1 1
