%BLOCK LATTICE_CART
2.823851616156    0.000000000000    0.000000000000    
-1.411925808078    2.445527236109    0.000000000000    
0.000000000000    0.000000000000    4.706544219074    
%END BLOCK LATTICE_CART
%BLOCK POSITIONS_FRAC
Al    0.000000000000    0.000000000000    0.000000000000
Al    0.666666666667    0.333333333333    0.500000000000
%END BLOCK POSITIONS_FRAC
%BLOCK SPECIES_POT
Al al.lda.recpot
%END BLOCK SPECIES_POT
