%BLOCK LATTICE_CART
   2.833725690800000   0.000000000000000   0.000000000000000
   1.416862845400000   2.454078435589407   0.000000000000000
   0.000000000000003   0.000000000000002  50.974915309513634
%END BLOCK LATTICE_CART
%BLOCK POSITIONS_FRAC
    Al   0.000000000000000   0.000000000000000   0.999943157935116
    Al   0.333333333300000   0.333333333300000   0.045388451226464
    Al   0.666666666700000   0.666666666700000   0.090829282524763
    Al   0.000000000000000   0.000000000000000   0.136264298378125
    Al   0.333333333300000   0.333333333300000   0.181650883161693
    Al   0.000000000000000   0.000000000000000   0.227034114647603
    Al   0.600000000000000   0.600000000000000   0.272943892203451
    Al   0.933333333300000   0.933333333300000   0.318339689913205
    Al   0.266666666700000   0.266666666700000   0.363763884020473
    Al   0.600000000000000   0.600000000000000   0.409182380389408
    Al   0.933333333300000   0.933333333300000   0.454545829823441
    Al   0.600000000000000   0.600000000000000   0.499909274840847
    Al   0.266666666700000   0.266666666700000   0.545327732982986
    Al   0.933333333300000   0.933333333300000   0.590751847014889
    Al   0.600000000000000   0.600000000000000   0.636147497604622
    Al   0.000000000000000   0.000000000000000   0.682057066037319
    Al   0.333333333300000   0.333333333300000   0.727440037975996
    Al   1.000000000000000   1.000000000000000   0.772826332303539
    Al   0.666666666700000   0.666666666700000   0.818261060800254
    Al   0.333333333300000   0.333333333300000   0.863701647759974
    Al   0.000000000000000   0.000000000000000   0.909146772549947
    Al   0.666666666700000   0.666666666700000   0.954544934614773
%END BLOCK POSITIONS_FRAC
%BLOCK SPECIES_POT
    Al al.lda.recpot                                                                          
%END BLOCK SPECIES_POT
%BLOCK ION_OPTIMIZATION
           0           0           1
           0           0           1
           0           0           1
           0           0           1
           0           0           1
           0           0           1
           0           0           1
           0           0           1
           0           0           1
           0           0           1
           0           0           1
           0           0           1
           0           0           1
           0           0           1
           0           0           1
           0           0           1
           0           0           1
           0           0           1
           0           0           1
           0           0           1
           0           0           1
           0           0           1
%END BLOCK ION_OPTIMIZATION
