%BLOCK LATTICE_CART
2.510879469583    0.000000000000    0.000000000000    
-1.255439734791    2.174485406500    0.000000000000    
0.000000000000    0.000000000000    3.999096032026    
%END BLOCK LATTICE_CART
%BLOCK POSITIONS_FRAC
Si    0.000000000000    0.000000000000    0.000000000000
Si    0.666666666667    0.333333333333    0.500000000000
%END BLOCK POSITIONS_FRAC
%BLOCK SPECIES_POT
Si si.gga.recpot
%END BLOCK SPECIES_POT
