acell 2.807288641215769 2.807288641215769 48.134973121827706 angstrom
angdeg 90 90 60
ntypat 1
znucl 13
natom 21
typat 21*1
xred
    0.0000000000    0.0000000000    0.0000000000
    0.3333333333    0.3333333333    0.0476190476
    0.6666666667    0.6666666667    0.0952380952
    0.0000000000    0.0000000000    0.1428571429
    0.3333333333    0.3333333333    0.1904761905
    0.6666666667    0.6666666667    0.2380952381
    0.0000000000    0.0000000000    0.2857142857
    0.3333333333    0.3333333333    0.3333333333
    0.6666666667    0.6666666667    0.3809523810
    0.0000000000    0.0000000000    0.4285714286
    0.3333333333    0.3333333333    0.4761904762
    0.6666666667    0.6666666667    0.5238095238
    0.0000000000    0.0000000000    0.5714285714
    0.3333333333    0.3333333333    0.6190476190
    0.6666666667    0.6666666667    0.6666666667
    0.0000000000    0.0000000000    0.7142857143
    0.3333333333    0.3333333333    0.7619047619
    0.6666666667    0.6666666667    0.8095238095
    0.0000000000    0.0000000000    0.8571428571
    0.3333333333    0.3333333333    0.9047619048
    0.6666666667    0.6666666667    0.9523809524
ecut  480 eV
kptopt 1
ngkpt 10 10 1
nshiftk 1
shiftk 0.0 0.0 0.5
nstep 10
toldfe 1.0d-6
occopt= 3
tsmear= 0.1 eV
ixc= 2
chkprim= 0
chksymbreak= 0
natfixx 21
natfixy 21
iatfixx 1 2 3 4 5 6 7 8 9 10 11 12 13 14 15 16 17 18 19 20 21
iatfixy 1 2 3 4 5 6 7 8 9 10 11 12 13 14 15 16 17 18 19 20 21
optcell= 6
ionmov= 2
ntime= 30
ecutsm= 0.5 Ha
dilatmx=   2
tolmxf= 0.00005
