ATOMIC_SPECIES
Si 14 si.lda.lps blps

LATTICE_CONSTANT
10.220303457786414  // add lattice constant

LATTICE_VECTORS
0.500000000000    0.500000000000    0.000000000000    
-0.500000000000    0.500000000000    0.000000000000    
0.000000000000    0.000000000000    5.000000000000    

ATOMIC_POSITIONS
Direct

Si
0.0
13
    0.0 0.0 0.0    1 1 1
    0.5 0.0 0.05    1 1 1
    0.5 0.5 0.1 1 1 1
    0.0 0.5 0.15 1 1 1
    0.0 0.0 0.2 1 1 1
    0.5 0.0 0.25 1 1 1
    0.5 0.5 0.3 1 1 1
    0.0 0.5 0.35 1 1 1
    0.0 0.0 0.4 1 1 1
    0.5 0.0 0.45 1 1 1
    0.5 0.5 0.5 1 1 1
    0.0 0.5 0.55 1 1 1
    0.0 0.0 0.6 1 1 1