ATOMIC_SPECIES
Li 6.941 li.gga.psp.1 blps
Mg 24.305 mg.gga.psp blps

LATTICE_CONSTANT
1.8897259885789233  // add lattice constant

LATTICE_VECTORS
0.000000000000    11.394150000000    0.000000000000    
3.088180000000    0.000000000000    0.000000000000    
0.000000000000    -2.446321000000    -4.763796000000    

ATOMIC_POSITIONS
Direct

Li
0.0
4
    0.125181000000    0.500000000000    0.291595000000 1 1 1
    0.374819000000    0.000000000000    0.708405000000 1 1 1
    0.625181000000    0.000000000000    0.291595000000 1 1 1
    0.874819000000    0.500000000000    0.708405000000 1 1 1
Mg
0.0
4
    0.376323000000    0.500000000000    0.206517000000 1 1 1
    0.123677000000    0.000000000000    0.793483000000 1 1 1
    0.876323000000    0.000000000000    0.206517000000 1 1 1
    0.623677000000    0.500000000000    0.793483000000 1 1 1
