ATOMIC_SPECIES
Li 3 li.gga.psp.1 blps

LATTICE_CONSTANT
10.548614039284432  // add lattice constant

LATTICE_VECTORS
0.000000000000    0.500000000000    0.500000000000    
0.500000000000    0.000000000000    0.500000000000    
0.500000000000    0.500000000000    0.000000000000    

ATOMIC_POSITIONS
Direct

Li
0.0
2
    0.000000000000    0.000000000000    0.000000000000 1 1 1
    0.250000000000    0.250000000000    0.250000000000 1 1 1
