%BLOCK LATTICE_CART
2.806700022909    0.000000000000    0.000000000000    
-1.403350011455    2.430673520642    0.000000000000    
0.000000000000    0.000000000000    4.617592814481    
%END BLOCK LATTICE_CART
%BLOCK POSITIONS_FRAC
Al    0.000000000000    0.000000000000    0.000000000000
Al    0.666666666667    0.333333333333    0.500000000000
%END BLOCK POSITIONS_FRAC
%BLOCK SPECIES_POT
Al al.lda.recpot
%END BLOCK SPECIES_POT
