%BLOCK LATTICE_CART
   2.807406101100000   0.000000000000000   0.000000000000000
   1.403703050550000   2.431285002292024   0.000000000000000
   0.000000000000003   0.000000000000002  50.716495943085299
%END BLOCK LATTICE_CART
%BLOCK POSITIONS_FRAC
    Al   0.000000000000000   0.000000000000000   0.000085261716467
    Al   0.333333333300000   0.333333333300000   0.045143825823716
    Al   0.666666666700000   0.666666666700000   0.090385453264090
    Al   0.000000000000000   0.000000000000000   0.135372324518233
    Al   0.333333333300000   0.333333333300000   0.181177213618895
    Al   0.000000000000000   0.000000000000000   0.226425114793425
    Al   0.533333333300000   0.533333333300000   0.273568778515856
    Al   0.866666666700000   0.866666666700000   0.318593331757061
    Al   0.200000000000000   0.200000000000000   0.363966974019271
    Al   0.533333333300000   0.533333333300000   0.408996046581632
    Al   0.866666666700000   0.866666666700000   0.454544523268117
    Al   0.533333333300000   0.533333333300000   0.500093097077338
    Al   0.200000000000000   0.200000000000000   0.545122399988875
    Al   0.866666666700000   0.866666666700000   0.590496415166390
    Al   0.533333333300000   0.533333333300000   0.635521385201572
    Al   0.000000000000000   0.000000000000000   0.682665560639268
    Al   0.333333333300000   0.333333333300000   0.727913991362729
    Al   0.000000000000000   0.000000000000000   0.773719475731863
    Al   0.666666666700000   0.666666666700000   0.818706786319041
    Al   0.333333333300000   0.333333333300000   0.863948793304303
    Al   0.000000000000000   0.000000000000000   0.909007570054391
    Al   0.666666666700000   0.666666666700000   0.954546460414963
%END BLOCK POSITIONS_FRAC
%BLOCK SPECIES_POT
    Al al.lda.recpot                                                                          
%END BLOCK SPECIES_POT
%BLOCK ION_OPTIMIZATION
           0           0           1
           0           0           1
           0           0           1
           0           0           1
           0           0           1
           0           0           1
           0           0           1
           0           0           1
           0           0           1
           0           0           1
           0           0           1
           0           0           1
           0           0           1
           0           0           1
           0           0           1
           0           0           1
           0           0           1
           0           0           1
           0           0           1
           0           0           1
           0           0           1
           0           0           1
%END BLOCK ION_OPTIMIZATION
