%BLOCK LATTICE_CART
0 1.984 1.984
1.984 0 1.984
1.984 1.984 0
%END BLOCK LATTICE_CART
%BLOCK POSITIONS_FRAC
Al	0.000000000000	0.000000000000	0.000000000000
%END BLOCK POSITIONS_FRAC
%BLOCK SPECIES_POT
Al al_HC.lda.recpot
%END BLOCK SPECIES_POT


