%BLOCK LATTICE_ABC
2.7861765891    2.7861765891    45.4980731778    90.0000000000    90.0000000000    60.0000000000    
%END BLOCK LATTICE_ABC
%BLOCK POSITIONS_FRAC
Al    0.0000000000    0.0000000000    0.0000000000
Al    0.3333333333    0.3333333333    0.0500000000
Al    0.6666666667    0.6666666667    0.1000000000
Al    0.0000000000    0.0000000000    0.1500000000
Al    0.3333333333    0.3333333333    0.2000000000
Al    0.8333333333    0.8333333333    0.2500000000
Al    0.1666666667    0.1666666667    0.3000000000
Al    0.5000000000    0.5000000000    0.3500000000
Al    0.8333333333    0.8333333333    0.4000000000
Al    0.1666666667    0.1666666667    0.4500000000
Al    0.8333333333    0.8333333333    0.5000000000
Al    0.5000000000    0.5000000000    0.5500000000
Al    0.1666666667    0.1666666667    0.6000000000
Al    0.8333333333    0.8333333333    0.6500000000
Al    0.3333333333    0.3333333333    0.7000000000
Al    0.0000000000    0.0000000000    0.7500000000
Al    0.6666666667    0.6666666667    0.8000000000
Al    0.3333333333    0.3333333333    0.8500000000
Al    0.0000000000    0.0000000000    0.9000000000
Al    0.6666666667    0.6666666667    0.9500000000
%END BLOCK POSITIONS_FRAC
%BLOCK ION_OPTIMIZATION
0 0 1
0 0 1
0 0 1
0 0 1
0 0 1
0 0 1
0 0 1
0 0 1
0 0 1
0 0 1
0 0 1
0 0 1
0 0 1
0 0 1
0 0 1
0 0 1
0 0 1
0 0 1
0 0 1
0 0 1
%END BLOCK ION_OPTIMIZATION
%BLOCK SPECIES_POT
Al al.lda.recpot
%END BLOCK SPECIES_POT
