ATOMIC_SPECIES
Al 26.981539 al.lda.lps

LATTICE_CONSTANT
7.50241114482312  // add lattice constant

LATTICE_VECTORS
0.707106781187    0.000000000000    0.000000000000    
0.353553390593    0.612372435696    0.000000000000    
0.000000000000    0.000000000000    12.701705922171765

ATOMIC_POSITIONS
Direct

Al
0.0
22
    -2.8526856715E-30 -2.9193879052E-30  9.3092701481E-05 1 1 1
     3.3333333330E-01  3.3333333330E-01  4.5316887351E-02 1 1 1
     6.6666666670E-01  6.6666666670E-01  9.0787784759E-02 1 1 1
    -2.8393905731E-30 -2.9060928068E-30  1.3594886476E-01 1 1 1
     3.3333333330E-01  3.3333333330E-01  1.8143473738E-01 1 1 1
    -2.8390095083E-30 -2.9057117420E-30  2.2685015499E-01 1 1 1
     4.6666666670E-01  4.6666666670E-01  2.7330839438E-01 1 1 1
     8.0000000000E-01  8.0000000000E-01  3.1852041903E-01 1 1 1
     1.3333333330E-01  1.3333333330E-01  3.6387497874E-01 1 1 1
     4.6666666670E-01  4.6666666670E-01  4.0905173928E-01 1 1 1
     8.0000000000E-01  8.0000000000E-01  4.5454545455E-01 1 1 1
     4.6666666670E-01  4.6666666670E-01  5.0003916982E-01 1 1 1
     1.3333333330E-01  1.3333333330E-01  5.4521593036E-01 1 1 1
     8.0000000000E-01  8.0000000000E-01  5.9057049007E-01 1 1 1
     4.6666666670E-01  4.6666666670E-01  6.3578251472E-01 1 1 1
    -2.8390095083E-30 -2.9057117420E-30  6.8224075411E-01 1 1 1
     3.3333333330E-01  3.3333333330E-01  7.2765617172E-01 1 1 1
    -2.8393905731E-30 -2.9060928068E-30  7.7314204434E-01 1 1 1
     6.6666666670E-01  6.6666666670E-01  8.1830312434E-01 1 1 1
     3.3333333330E-01  3.3333333330E-01  8.6377402175E-01 1 1 1
    -2.8526856715E-30 -2.9193879052E-30  9.0899781640E-01 1 1 1
     6.6666666670E-01  6.6666666670E-01  9.5454545455E-01 1 1 1
