%BLOCK LATTICE_CART
4.411069000000    0.000000000000    0.000000000000    
0.000000000000    4.411069000000    0.000000000000    
0.000000000000    0.000000000000    4.411069000000    
%END BLOCK LATTICE_CART
%BLOCK POSITIONS_FRAC
Li    0.000000000000    0.000000000000    0.000000000000
Mg    0.500000000000    0.500000000000    0.000000000000
Mg    0.500000000000    0.000000000000    0.500000000000
Mg    0.000000000000    0.500000000000    0.500000000000
%END BLOCK POSITIONS_FRAC
%BLOCK SPECIES_POT
Li li.gga.recpot
Mg mg.gga.recpot
%END BLOCK SPECIES_POT
