%BLOCK LATTICE_CART
   2.673274031681981   0.000000003007880   0.000000009195737
   0.000000003007880   2.673274032516809  -0.000000003529898
   0.000000009195737  -0.000000003529898   2.673274032517079
%END BLOCK LATTICE_CART
%BLOCK POSITIONS_FRAC
    Al   0.000000000000000   0.000000000000000   0.000000000000000
%END BLOCK POSITIONS_FRAC
%BLOCK SPECIES_POT
    Al al.lda.recpot                                                                          
%END BLOCK SPECIES_POT
